     Program PWSCF v.6.0 (svn rev. 13079) starts on  5Jun2020 at 11:44:33

     Current dimensions of program PWSCF are:
     Max number of different atomic species (ntypx) = 10
     Max number of k-points (npk) =  40000
     Max angular momentum in pseudopotentials (lmaxx) =  3
               file Cu.pbe-dn-kjpaw_psl.1.0.0.UPF: wavefunction(s)  4S 3D renormalized
               file N.pbe-n-kjpaw_psl.1.0.0.UPF: wavefunction(s)  2S renormalized

     Subspace diagonalization in iterative solution of the eigenvalue problem:
     a serial algorithm will be used

     bravais-lattice index     =            0
     lattice parameter (alat)  =       7.0298  a.u.
     unit-cell volume          =     392.2218 (a.u.)^3
     number of atoms/cell      =            5
     number of atomic types    =            2
     number of electrons       =        49.00
     number of Kohn-Sham states=           30
     kinetic-energy cutoff     =      30.0000  Ry
     charge density cutoff     =     120.0000  Ry
     convergence threshold     =      1.0E-10
     mixing beta               =       0.7000
     number of iterations used =            8  plain     mixing
     Exchange-correlation      =  SLA  PW   PBX  PBC ( 1  4  3  4 0 0)
     nstep                     =           50

     celldm(1)=   7.029781  celldm(2)=   0.000000  celldm(3)=   0.000000
     celldm(4)=   0.000000  celldm(5)=   0.000000  celldm(6)=   0.000000

     crystal axes: (cart. coord. in units of alat)
               a(1) = (   1.000000   0.000000   0.000000 )
               a(2) = (   0.000000   1.000000   0.000000 )
               a(3) = (   0.000000   0.000000   1.129032 )

     reciprocal axes: (cart. coord. in units 2 pi/alat)
               b(1) = (  1.000000  0.000000  0.000000 )
               b(2) = (  0.000000  1.000000  0.000000 )
               b(3) = (  0.000000  0.000000  0.885714 )

     PseudoPot. # 1 for Cu read from file:
     ../pseudo/Cu.pbe-dn-kjpaw_psl.1.0.0.UPF
     MD5 check sum: cfffd1f38ee05704b3e17f46f1730a6f
     Pseudo is Projector augmented-wave + core cor, Zval = 11.0
     Generated using "atomic" code by A. Dal Corso  v.6.3
     Shape of augmentation charge: PSQ
     Using radial grid of 1199 points,  6 beta functions with:
                l(1) =   0
                l(2) =   0
                l(3) =   1
                l(4) =   1
                l(5) =   2
                l(6) =   2
     Q(r) pseudized with 0 coefficients

     PseudoPot. # 2 for  N read from file:
     ../pseudo/N.pbe-n-kjpaw_psl.1.0.0.UPF
     MD5 check sum: 14c48229446f9f2d411169a3abcbc3fa
     Pseudo is Projector augmented-wave + core cor, Zval =  5.0
     Generated using "atomic" code by A. Dal Corso  v.6.3
     Shape of augmentation charge: PSQ
     Using radial grid of 1085 points,  4 beta functions with:
                l(1) =   0
                l(2) =   0
                l(3) =   1
                l(4) =   1
     Q(r) pseudized with 0 coefficients

     atomic species   valence    mass     pseudopotential
        Cu            11.00    63.54600     Cu( 1.00)
        N              5.00    14.00700      N( 1.00)

     Starting magnetic structure
     atomic species   magnetization
        Cu           0.000
        N            0.000

      4 Sym. Ops. (no inversion) found
          (note:  4 additional sym.ops. were found but ignored
           their fractional translations are incommensurate with FFT grid)

   Cartesian axes

     site n.     atom                  positions (alat units)
         1           Cu  tau(   1) = (   0.0000000   0.0000000   0.0000000  )
         2           Cu  tau(   2) = (   0.5000000   0.5000000   0.0000000  )
         3           Cu  tau(   3) = (   0.0000000   0.5000000   0.5000000  )
         4           Cu  tau(   4) = (   0.5000000   0.0000000   0.5000000  )
         5           N   tau(   5) = (   0.0000000   0.5000000   1.0000000  )

     number of k points=     8  gaussian smearing, width (Ry)=  0.0200
                       cart. coord. in units 2pi/alat
        k(    1) = (   0.1250000   0.1250000   0.1107143), wk =   0.1250000
        k(    2) = (   0.1250000   0.1250000   0.3321429), wk =   0.1250000
        k(    3) = (   0.1250000   0.3750000   0.1107143), wk =   0.1250000
        k(    4) = (   0.1250000   0.3750000   0.3321429), wk =   0.1250000
        k(    5) = (   0.3750000   0.3750000   0.1107143), wk =   0.1250000
        k(    6) = (   0.3750000   0.3750000   0.3321429), wk =   0.1250000
        k(    7) = (   0.3750000   0.1250000  -0.1107143), wk =   0.1250000
        k(    8) = (   0.3750000   0.1250000  -0.3321429), wk =   0.1250000

     Check: negative/imaginary core charge=   -0.000087    0.000000

     Initial potential from superposition of free atoms

     starting charge   48.99908, renormalised to   49.00000
     Starting wfc are   40 randomized atomic wfcs
     Checking if some PAW data can be deallocated...

     Self-consistent Calculation

     iteration #  1     ecut=    30.00 Ry     beta=0.70
     Davidson diagonalization with overlap
     ethr =  1.00E-02,  avg # of iterations =  2.8

     total energy              =    -879.92025578 Ry
     Harris-Foulkes estimate   =    -880.51288585 Ry
     estimated scf accuracy    <       0.72145295 Ry

     total magnetization       =     0.01 Bohr mag/cell
     absolute magnetization    =     0.02 Bohr mag/cell

[...]

     Magnetic moment per site:
     atom:    1    charge:    8.3628    magn:    0.0000    constr:    0.0000
     atom:    2    charge:    8.3590    magn:    0.0000    constr:    0.0000
     atom:    3    charge:    8.3571    magn:    0.0000    constr:    0.0000
     atom:    4    charge:    8.3875    magn:    0.0000    constr:    0.0000
     atom:    5    charge:    3.9208    magn:    0.0000    constr:    0.0000

     End of self-consistent calculation

 ------ SPIN UP ------------

          k = 0.1250 0.1250 0.1107 (  1079 PWs)   bands (ev):

    -4.9100   4.4292   5.2152   5.6965   6.1990   7.0844   7.1875   7.2231
     7.5832   7.7616   8.1759   8.4326   8.4818   8.6854   8.7332   9.0409
     9.2041   9.2903   9.4598   9.5055   9.6299   9.7207   9.9108   9.9404
    11.5063  14.1534  15.2590  15.3172  17.5812  18.7622

[...]

 ------ SPIN DOWN ----------

[...]

     the Fermi energy is    11.6628 ev

!    total energy              =    -880.37345164 Ry
     Harris-Foulkes estimate   =    -880.37345164 Ry
     estimated scf accuracy    <          4.4E-11 Ry

     total all-electron energy =    -13349.191314 Ry

     The total energy is the sum of the following terms:

     one-electron contribution =    -137.33907000 Ry
     hartree contribution      =     136.58967078 Ry
     xc contribution           =    -184.11247290 Ry
     ewald contribution        =    -328.18043059 Ry
     one-center paw contrib.   =    -367.32471760 Ry
     smearing contrib. (-TS)   =      -0.00643132 Ry

[...]

     convergence has been achieved in  15 iterations

     Forces acting on atoms (Ry/au):

     atom    1 type  1   force =     0.00000000    0.00000000   -0.01194799
     atom    2 type  1   force =     0.00000000    0.00000000   -0.01199599
     atom    3 type  1   force =     0.00000000    0.00000000   -0.02115873
     atom    4 type  1   force =     0.00000000    0.00000000    0.00174190
     atom    5 type  2   force =     0.00000000    0.00000000    0.04336082

     Total force =     0.051162     Total SCF correction =     0.000006

     entering subroutine stress ...

          total   stress  (Ry/bohr**3)                   (kbar)     P= -204.59
  -0.00130913   0.00000000   0.00000000       -192.58      0.00      0.00
   0.00000000  -0.00130935   0.00000000          0.00   -192.61      0.00
   0.00000000   0.00000000  -0.00155384          0.00      0.00   -228.58

     BFGS Geometry Optimization

     number of scf cycles    =   1
     number of bfgs steps    =   0

     enthalpy new            =    -880.3734516357 Ry

     new trust radius        =       0.1538654663 bohr
     new conv_thr            =            1.0E-10 Ry

     new unit-cell volume =    352.71129 a.u.^3 (    52.26642 Ang^3 )

CELL_PARAMETERS (angstrom)
   3.598251185   0.000000000   0.000000000
   0.000000000   3.598230405   0.000000000
   0.000000000   0.000000000   4.036847186

ATOMIC_POSITIONS (angstrom)
Cu       0.000000000   0.000000000  -0.006076998
Cu       1.799125592   1.799115202  -0.006101412
Cu       0.000000000   1.799115202   1.776984839
Cu       1.799125592   0.000000000   1.788632576
N        0.000000000   1.799115202   3.597547439

     Writing output data file Cu2N.save
     NEW-OLD atomic charge density approx. for the potential

     Check: negative/imaginary core charge=   -0.000042    0.000000
     extrapolated charge   43.51115, renormalised to   49.00000

[...]

     enthalpy old            =    -880.3734516357 Ry
     enthalpy new            =    -880.3889999985 Ry

     CASE: enthalpy_new < enthalpy_old

[...]

     number of scf cycles    =  16
     number of bfgs steps    =  15

     enthalpy old            =    -880.4174427103 Ry
     enthalpy new            =    -880.4174561392 Ry

     CASE: enthalpy_new < enthalpy_old

     new trust radius        =       0.0019738346 bohr
     new conv_thr            =            1.0E-12 Ry

     new unit-cell volume =    359.38203 a.u.^3 (    53.25492 Ang^3 )

[...]

ATOMIC_POSITIONS (angstrom)
Cu       0.000000000   0.000000000  -0.176547290
Cu       1.853574546   1.853344096  -0.177297158
Cu       0.000000000   1.853344096   1.760588164
Cu       1.853574546   0.000000000   1.760133520
N        0.000000000   1.853344096   3.698387417

[...]

     Check: negative/imaginary core charge=   -0.000048    0.000000
     extrapolated charge   48.98386, renormalised to   49.00000

[...]

Begin final coordinates
     new unit-cell volume =    359.38203 a.u.^3 (    53.25492 Ang^3 )

[...]

ATOMIC_POSITIONS (angstrom)
Cu       0.000000000   0.000000000  -0.176547290
Cu       1.853574546   1.853344096  -0.177297158
Cu       0.000000000   1.853344096   1.760588164
Cu       1.853574546   0.000000000   1.760133520
N        0.000000000   1.853344096   3.698387417
End final coordinates

     lsda relaxation :  a final configuration with zero
                        absolute magnetization has been found

     the program is checking if it is really the minimum energy structure
     by performing a new scf iteration without any "electronic" history

[...]

     starting charge   48.99908, renormalised to   49.00000

     Writing output data file Cu2N.save
     NEW-OLD atomic charge density approx. for the potential

[...]

     bfgs converged in  17 scf cycles and  16 bfgs steps
     (criteria: energy <  1.0E-04, force <  1.0E-03, cell <  5.0E-01)

     End of BFGS Geometry Optimization

     Final enthalpy =    -880.4174575560 Ry
Begin final coordinates
     new unit-cell volume =    359.38203 a.u.^3 (    53.25492 Ang^3 )

CELL_PARAMETERS (angstrom)
   3.707149092   0.000000000   0.000000000
   0.000000000   3.706688191   0.000000000
   0.000000000   0.000000000   3.875552627

ATOMIC_POSITIONS (angstrom)
Cu       0.000000000   0.000000000   0.000000000
Cu       1.853574546   1.853344096   0.000000000
Cu       0.000000000   1.853344096   1.760588164
Cu       1.853574546   0.000000000   1.760133520
N        0.000000000   1.853344096   3.698387417
End final coordinates

     A final scf calculation at the relaxed structure.
     The G-vectors are recalculated for the final unit cell
     Results may differ from those at the preceding step.

   Info: using nr1, nr2, nr3 values from input

   Info: using nr1, nr2, nr3 values from input

     bravais-lattice index     =            0
     lattice parameter (alat)  =       7.0298  a.u.
     unit-cell volume          =     359.3820 (a.u.)^3
     number of atoms/cell      =            5
     number of atomic types    =            2
     number of electrons       =        49.00
     number of Kohn-Sham states=           30
     kinetic-energy cutoff     =      30.0000  Ry
     charge density cutoff     =     120.0000  Ry
     convergence threshold     =      1.0E-12
     mixing beta               =       0.7000
     number of iterations used =            8  plain     mixing
     Exchange-correlation      =  SLA  PW   PBX  PBC ( 1  4  3  4 0 0)

     celldm(1)=   7.029781  celldm(2)=   0.000000  celldm(3)=   0.000000
     celldm(4)=   0.000000  celldm(5)=   0.000000  celldm(6)=   0.000000

     crystal axes: (cart. coord. in units of alat)
               a(1) = (   0.996545   0.000000   0.000000 )
               a(2) = (   0.000000   0.996422   0.000000 )
               a(3) = (   0.000000   0.000000   1.041815 )

     reciprocal axes: (cart. coord. in units 2 pi/alat)
               b(1) = (  1.003467  0.000000  0.000000 )
               b(2) = (  0.000000  1.003591  0.000000 )
               b(3) = (  0.000000  0.000000  0.959863 )

     PseudoPot. # 1 for Cu read from file:
     ../pseudo/Cu.pbe-dn-kjpaw_psl.1.0.0.UPF
     MD5 check sum: cfffd1f38ee05704b3e17f46f1730a6f
     Pseudo is Projector augmented-wave + core cor, Zval = 11.0
     Generated using "atomic" code by A. Dal Corso  v.6.3
     Shape of augmentation charge: PSQ
     Using radial grid of 1199 points,  6 beta functions with:
                l(1) =   0
                l(2) =   0
                l(3) =   1
                l(4) =   1
                l(5) =   2
                l(6) =   2
     Q(r) pseudized with 0 coefficients

     PseudoPot. # 2 for  N read from file:
     ../pseudo/N.pbe-n-kjpaw_psl.1.0.0.UPF
     MD5 check sum: 14c48229446f9f2d411169a3abcbc3fa
     Pseudo is Projector augmented-wave + core cor, Zval =  5.0
     Generated using "atomic" code by A. Dal Corso  v.6.3
     Shape of augmentation charge: PSQ
     Using radial grid of 1085 points,  4 beta functions with:
                l(1) =   0
                l(2) =   0
                l(3) =   1
                l(4) =   1
     Q(r) pseudized with 0 coefficients

     atomic species   valence    mass     pseudopotential
        Cu            11.00    63.54600     Cu( 1.00)
        N              5.00    14.00700      N( 1.00)

     Starting magnetic structure
     atomic species   magnetization
        Cu           0.000
        N            0.000

      4 Sym. Ops. (no inversion) found
          (note:  4 additional sym.ops. were found but ignored
           their fractional translations are incommensurate with FFT grid)

   Cartesian axes

     site n.     atom                  positions (alat units)
         1           Cu  tau(   1) = (   0.0000000   0.0000000  -0.0474589  )
         2           Cu  tau(   2) = (   0.4982727   0.4982108  -0.0476605  )
         3           Cu  tau(   3) = (   0.0000000   0.4982108   0.4732764  )
         4           Cu  tau(   4) = (   0.4982727   0.0000000   0.4731542  )
         5           N   tau(   5) = (   0.0000000   0.4982108   0.9941902  )

     number of k points=     8  gaussian smearing, width (Ry)=  0.0200
                       cart. coord. in units 2pi/alat
        k(    1) = (   0.1254333   0.1254489   0.1199829), wk =   0.1250000
        k(    2) = (   0.1254333   0.1254489   0.3599487), wk =   0.1250000
        k(    3) = (   0.1254333   0.3763467   0.1199829), wk =   0.1250000
        k(    4) = (   0.1254333   0.3763467   0.3599487), wk =   0.1250000
        k(    5) = (   0.3762999   0.3763467   0.1199829), wk =   0.1250000
        k(    6) = (   0.3762999   0.3763467   0.3599487), wk =   0.1250000
        k(    7) = (   0.3762999   0.1254489  -0.1199829), wk =   0.1250000
        k(    8) = (   0.3762999   0.1254489  -0.3599487), wk =   0.1250000

     Check: negative/imaginary core charge=   -0.000079    0.000000

     Initial potential from superposition of free atoms

     starting charge   48.99908, renormalised to   49.00000
     Starting wfc are   40 randomized atomic wfcs
     Checking if some PAW data can be deallocated...

     Writing output data file Cu2N.save

     Self-consistent Calculation

[...]

     total energy              =    -880.38285941 Ry
     Harris-Foulkes estimate   =    -880.38285941 Ry
     estimated scf accuracy    <          2.1E-12 Ry

[...]

     iteration # 17     ecut=    30.00 Ry     beta=0.70
     Davidson diagonalization with overlap
     ethr =  1.00E-13,  avg # of iterations =  1.0

     Magnetic moment per site:
     atom:    1    charge:    8.3738    magn:    0.0000    constr:    0.0000
     atom:    2    charge:    8.3717    magn:    0.0000    constr:    0.0000
     atom:    3    charge:    8.3620    magn:    0.0000    constr:    0.0000
     atom:    4    charge:    8.3913    magn:    0.0000    constr:    0.0000
     atom:    5    charge:    4.0261    magn:    0.0000    constr:    0.0000

     End of self-consistent calculation

 ------ SPIN UP ------------

[...]

 ------ SPIN DOWN ----------

[...]

          k = 0.3763 0.1254-0.3599 (   996 PWs)   bands (ev):

    -3.9292   4.6613   4.8218   6.0346   7.6686   8.5518   8.6965   8.9072
     8.9934   9.0501   9.2752   9.3330   9.4349   9.7646   9.8550   9.9824
    10.2449  10.6913  10.7179  10.7888  10.8571  10.9766  11.2820  11.8989
    12.9265  15.4031  15.9370  17.8062  19.1839  20.9445

     the Fermi energy is    13.5304 ev

!    total energy              =    -880.38285941 Ry
     Harris-Foulkes estimate   =    -880.38285941 Ry
     estimated scf accuracy    <          2.6E-13 Ry

     total all-electron energy =    -13349.200722 Ry

     The total energy is the sum of the following terms:

     one-electron contribution =    -119.99755795 Ry
     hartree contribution      =     130.17608612 Ry
     xc contribution           =    -184.33326547 Ry
     ewald contribution        =    -338.88027698 Ry
     one-center paw contrib.   =    -367.34369387 Ry
     smearing contrib. (-TS)   =      -0.00415127 Ry

     total magnetization       =     0.00 Bohr mag/cell
     absolute magnetization    =     0.00 Bohr mag/cell

     convergence has been achieved in  17 iterations

     Forces acting on atoms (Ry/au):

     atom    1 type  1   force =     0.00000000    0.00000000    0.00029194
     atom    2 type  1   force =     0.00000000    0.00000000    0.00035951
     atom    3 type  1   force =     0.00000000    0.00000000   -0.00052788
     atom    4 type  1   force =     0.00000000    0.00000000    0.00026866
     atom    5 type  2   force =     0.00000000    0.00000000   -0.00039223

     Total force =     0.000848     Total SCF correction =     0.000000

     entering subroutine stress ...

          total   stress  (Ry/bohr**3)                   (kbar)     P= -114.20
  -0.00053652   0.00000000   0.00000000        -78.92      0.00      0.00
   0.00000000  -0.00053837   0.00000000          0.00    -79.20      0.00
   0.00000000   0.00000000  -0.00125399          0.00      0.00   -184.47

     Writing output data file Cu2N.save

     General routines

     Parallel routines

   This run was terminated on:  12:26:19   5Jun2020

   JOB DONE.