     Program PWSCF v.6.0 (svn rev. 13079) starts on  4Aug2020 at 13:41:52

     Current dimensions of program PWSCF are:
     Max number of different atomic species (ntypx) = 10
     Max number of k-points (npk) =  40000
     Max angular momentum in pseudopotentials (lmaxx) =  3
               file Cu.pbe-dn-kjpaw_psl.1.0.0.UPF: wavefunction(s)  4S 3D renormalized
               file N.pbe-n-kjpaw_psl.1.0.0.UPF: wavefunction(s)  2S renormalized

     Subspace diagonalization in iterative solution of the eigenvalue problem:
     one sub-group per band group will be used

     bravais-lattice index     =            0
     lattice parameter (alat)  =       7.0055  a.u.
     unit-cell volume          =     343.7659 (a.u.)^3
     number of atoms/cell      =            5
     number of atomic types    =            2
     number of electrons       =        49.00
     number of Kohn-Sham states=           30
     kinetic-energy cutoff     =      40.0000  Ry
     charge density cutoff     =     160.0000  Ry
     convergence threshold     =      1.0E-10
     mixing beta               =       0.7000
     number of iterations used =            8  plain     mixing
     Exchange-correlation      =  SLA  PW   PBX  PBC ( 1  4  3  4 0 0)

     celldm(1)=   7.005497  celldm(2)=   0.000000  celldm(3)=   0.000000
     celldm(4)=   0.000000  celldm(5)=   0.000000  celldm(6)=   0.000000

     crystal axes: (cart. coord. in units of alat)
               a(1) = (   1.000000   0.000000   0.000000 )
               a(2) = (   0.000000   0.999876   0.000000 )
               a(3) = (   0.000000   0.000000   1.000000 )

     reciprocal axes: (cart. coord. in units 2 pi/alat)
               b(1) = (  1.000000  0.000000  0.000000 )
               b(2) = (  0.000000  1.000124  0.000000 )
               b(3) = (  0.000000  0.000000  1.000000 )

     PseudoPot. # 1 for Cu read from file:
     ../pseudo/Cu.pbe-dn-kjpaw_psl.1.0.0.UPF
     MD5 check sum: d0575d8777d02cc05b6679c1e3a9a036
     Pseudo is Projector augmented-wave + core cor, Zval = 11.0
     Generated using "atomic" code by A. Dal Corso  v.6.3
     Shape of augmentation charge: PSQ
     Using radial grid of 1199 points,  6 beta functions with:
                l(1) =   0
                l(2) =   0
                l(3) =   1
                l(4) =   1
                l(5) =   2
                l(6) =   2
     Q(r) pseudized with 0 coefficients

     PseudoPot. # 2 for  N read from file:
     ../pseudo/N.pbe-n-kjpaw_psl.1.0.0.UPF
     MD5 check sum: 57d39628416b425e94b4a4c0ec66cafa
     Pseudo is Projector augmented-wave + core cor, Zval =  5.0
     Generated using "atomic" code by A. Dal Corso  v.6.3
     Shape of augmentation charge: PSQ
     Using radial grid of 1085 points,  4 beta functions with:
                l(1) =   0
                l(2) =   0
                l(3) =   1
                l(4) =   1
     Q(r) pseudized with 0 coefficients

     atomic species   valence    mass     pseudopotential
        Cu            11.00    63.54600     Cu( 1.00)
        N              5.00    14.00700      N( 1.00)

     Starting magnetic structure
     atomic species   magnetization
        Cu           0.000
        N            0.500

      4 Sym. Ops. (no inversion) found

   Cartesian axes

     site n.     atom                  positions (alat units)
         1           Cu  tau(   1) = (   0.0000000   0.0000000   0.0000000  )
         2           Cu  tau(   2) = (   0.5000000   0.4999378   0.0000000  )
         3           Cu  tau(   3) = (   0.0000000   0.4999378   0.4749170  )
         4           Cu  tau(   4) = (   0.5000000   0.0000000   0.4747944  )
         5           N   tau(   5) = (   0.0000000   0.4999378   0.9976365  )

     number of k points=     8  gaussian smearing, width (Ry)=  0.0200
                       cart. coord. in units 2pi/alat
        k(    1) = (   0.1250000   0.1250155   0.1250000), wk =   0.1250000
        k(    2) = (   0.1250000   0.1250155   0.3750000), wk =   0.1250000
        k(    3) = (   0.1250000   0.3750466   0.1250000), wk =   0.1250000
        k(    4) = (   0.1250000   0.3750466   0.3750000), wk =   0.1250000
        k(    5) = (   0.3750000   0.1250155   0.3750000), wk =   0.1250000
        k(    6) = (   0.3750000   0.3750466   0.3750000), wk =   0.1250000
        k(    7) = (   0.3750000  -0.1250155   0.1250000), wk =   0.1250000
        k(    8) = (   0.3750000  -0.3750466   0.1250000), wk =   0.1250000

     Check: negative/imaginary core charge=   -0.000012    0.000000

     Initial potential from superposition of free atoms

     starting charge   48.99908, renormalised to   49.00000
     Starting wfc are   40 randomized atomic wfcs
     Checking if some PAW data can be deallocated...

     Self-consistent Calculation

     iteration #  1     ecut=    40.00 Ry     beta=0.70
     Davidson diagonalization with overlap
     ethr =  1.00E-02,  avg # of iterations =  2.9

     total energy              =    -879.98538918 Ry
     Harris-Foulkes estimate   =    -880.45768844 Ry
     estimated scf accuracy    <       0.74961621 Ry

     total magnetization       =     0.37 Bohr mag/cell
     absolute magnetization    =     0.56 Bohr mag/cell

[...]

     total energy              =    -880.43172432 Ry
     Harris-Foulkes estimate   =    -880.43172432 Ry
     estimated scf accuracy    <          1.8E-10 Ry

[...]

     iteration # 16     ecut=    40.00 Ry     beta=0.70
     Davidson diagonalization with overlap
     ethr =  3.64E-13,  avg # of iterations =  3.1

     Magnetic moment per site:
     atom:    1    charge:    8.1220    magn:    0.0000    constr:    0.0000
     atom:    2    charge:    8.1220    magn:    0.0000    constr:    0.0000
     atom:    3    charge:    8.1240    magn:    0.0000    constr:    0.0000
     atom:    4    charge:    8.1510    magn:    0.0000    constr:    0.0000
     atom:    5    charge:    3.8002    magn:   -0.0000    constr:    0.0000

     End of self-consistent calculation

 ------ SPIN UP ------------

          k = 0.1250 0.1250 0.1250 (  1457 PWs)   bands (ev):

    -4.1457   5.9830   7.0523   7.0892   7.4927   8.8755   8.8853   8.9339
     8.9854   9.2041  10.1769  10.3271  10.3345  10.5182  10.5278  11.0861
    11.3303  11.4953  11.5112  11.7940  11.7949  11.8799  12.0758  12.0819
    14.5003  17.1893  17.2071  17.4420  21.0494  21.0582

[...]

 ------ SPIN DOWN ----------

[...]

          k = 0.3750-0.3750 0.1250 (  1473 PWs)   bands (ev):

    -3.4122   5.0810   5.1271   6.4734   8.2282   9.2204   9.2525   9.5656
     9.6318   9.7164   9.9344  10.0336  10.0608  10.4696  10.5615  10.7281
    11.0203  11.4712  11.5033  11.5881  11.6804  11.7909  12.1177  12.7769
    13.8538  16.2828  16.7691  18.6752  20.1202  21.8577

     the Fermi energy is    14.4245 ev

!    total energy              =    -880.43172432 Ry
     Harris-Foulkes estimate   =    -880.43172432 Ry
     estimated scf accuracy    <          1.5E-11 Ry

     total all-electron energy =    -13349.249587 Ry

     The total energy is the sum of the following terms:

     one-electron contribution =    -113.10319740 Ry
     hartree contribution      =     128.13722637 Ry
     xc contribution           =    -184.57854317 Ry
     ewald contribution        =    -343.48501911 Ry
     one-center paw contrib.   =    -367.39795698 Ry
     smearing contrib. (-TS)   =      -0.00423403 Ry

     total magnetization       =    -0.00 Bohr mag/cell
     absolute magnetization    =     0.00 Bohr mag/cell

     convergence has been achieved in  16 iterations

     Writing output data file Cu2N.save

     General routines

     Parallel routines

   This run was terminated on:  13:42:21   4Aug2020

   JOB DONE.