     Program PWSCF v.6.0 (svn rev. 13079) starts on 11Feb2020 at 19:29:26

     Current dimensions of program PWSCF are:
     Max number of different atomic species (ntypx) = 10
     Max number of k-points (npk) =  40000
     Max angular momentum in pseudopotentials (lmaxx) =  3
               file Cu.pbe-dn-kjpaw_psl.1.0.0.UPF: wavefunction(s)  4S 3D renormalized
               file N.pbe-n-kjpaw_psl.1.0.0.UPF: wavefunction(s)  2S renormalized

     Subspace diagonalization in iterative solution of the eigenvalue problem:
     a serial algorithm will be used

     bravais-lattice index     =            0
     lattice parameter (alat)  =       9.6376  a.u.
     unit-cell volume          =     895.1733 (a.u.)^3
     number of atoms/cell      =            5
     number of atomic types    =            2
     number of electrons       =        49.00
     number of Kohn-Sham states=           30
     kinetic-energy cutoff     =      20.0000  Ry
     charge density cutoff     =      80.0000  Ry
     convergence threshold     =      1.0E-07
     mixing beta               =       0.7000
     number of iterations used =            8  plain     mixing
     Exchange-correlation      =  SLA  PW   PBX  PBC ( 1  4  3  4 0 0)

     celldm(1)=   9.637603  celldm(2)=   0.000000  celldm(3)=   0.000000
     celldm(4)=   0.000000  celldm(5)=   0.000000  celldm(6)=   0.000000

     crystal axes: (cart. coord. in units of alat)
               a(1) = (   1.000000   0.000000   0.000000 )
               a(2) = (   0.000000   1.000000   0.000000 )
               a(3) = (   0.000000   0.000000   1.000000 )

     reciprocal axes: (cart. coord. in units 2 pi/alat)
               b(1) = (  1.000000  0.000000  0.000000 )
               b(2) = (  0.000000  1.000000  0.000000 )
               b(3) = (  0.000000  0.000000  1.000000 )

     PseudoPot. # 1 for Cu read from file:
     ../pseudo/Cu.pbe-dn-kjpaw_psl.1.0.0.UPF
     MD5 check sum: cfffd1f38ee05704b3e17f46f1730a6f
     Pseudo is Projector augmented-wave + core cor, Zval = 11.0
     Generated using "atomic" code by A. Dal Corso  v.6.3
     Shape of augmentation charge: PSQ
     Using radial grid of 1199 points,  6 beta functions with:
                l(1) =   0
                l(2) =   0
                l(3) =   1
                l(4) =   1
                l(5) =   2
                l(6) =   2
     Q(r) pseudized with 0 coefficients

     PseudoPot. # 2 for  N read from file:
     ../pseudo/N.pbe-n-kjpaw_psl.1.0.0.UPF
     MD5 check sum: 14c48229446f9f2d411169a3abcbc3fa
     Pseudo is Projector augmented-wave + core cor, Zval =  5.0
     Generated using "atomic" code by A. Dal Corso  v.6.3
     Shape of augmentation charge: PSQ
     Using radial grid of 1085 points,  4 beta functions with:
                l(1) =   0
                l(2) =   0
                l(3) =   1
                l(4) =   1
     Q(r) pseudized with 0 coefficients

     atomic species   valence    mass     pseudopotential
        Cu            11.00     1.00000     Cu( 1.00)
        N              5.00     1.00000      N( 1.00)

     Starting magnetic structure
     atomic species   magnetization
        Cu           0.000
        N            0.500

     16 Sym. Ops., with inversion, found
          (note: 32 additional sym.ops. were found but ignored
           their fractional translations are incommensurate with FFT grid)

   Cartesian axes

     site n.     atom                  positions (alat units)
         1           Cu  tau(   1) = (   0.0000000   0.0000000   0.0000000  )
         2           Cu  tau(   2) = (   0.5000000   0.5000000   0.0000000  )
         3           Cu  tau(   3) = (   0.0000000   0.5000000   0.5000000  )
         4           Cu  tau(   4) = (   0.5000000   0.0000000   0.5000000  )
         5           N   tau(   5) = (   0.0000000   0.5000000   1.0000000  )

     number of k points=     1  gaussian smearing, width (Ry)=  0.0200
                       cart. coord. in units 2pi/alat
        k(    1) = (   0.2500000   0.2500000   0.2500000), wk =   1.0000000

     Check: negative/imaginary core charge=   -0.000306    0.000000

     Initial potential from superposition of free atoms

     starting charge   48.99908, renormalised to   49.00000
     Starting wfc are   40 randomized atomic wfcs
     Checking if some PAW data can be deallocated...

     Self-consistent Calculation

     iteration #  1     ecut=    20.00 Ry     beta=0.70
     Davidson diagonalization with overlap
     ethr =  1.00E-02,  avg # of iterations =  2.0

     total energy              =    -876.45937240 Ry
     Harris-Foulkes estimate   =    -877.21409671 Ry
     estimated scf accuracy    <       1.15108129 Ry

     total magnetization       =     0.98 Bohr mag/cell
     absolute magnetization    =     1.79 Bohr mag/cell

[...]

     total energy              =    -877.03460805 Ry
     Harris-Foulkes estimate   =    -877.03460836 Ry
     estimated scf accuracy    <       0.00000047 Ry

[...]

     iteration # 14     ecut=    20.00 Ry     beta=0.70
     Davidson diagonalization with overlap
     ethr =  7.50E-10,  avg # of iterations =  3.0

     Magnetic moment per site:
     atom:    1    charge:    9.6168    magn:    0.0340    constr:    0.0000
     atom:    2    charge:    9.6192    magn:    0.0326    constr:    0.0000
     atom:    3    charge:    9.6192    magn:    0.0326    constr:    0.0000
     atom:    4    charge:    9.6545    magn:    0.0683    constr:    0.0000
     atom:    5    charge:    4.6846    magn:    0.4591    constr:    0.0000

     End of self-consistent calculation

 ------ SPIN UP ------------

          k = 0.2500 0.2500 0.2500 (  1346 PWs)   bands (ev):

   -11.0740  -0.8373  -0.7424  -0.7251  -0.2860  -0.1866  -0.1812  -0.1209
    -0.0887  -0.0813  -0.0549  -0.0411  -0.0265   0.0040   0.0074   0.0147
     0.0840   0.0866   0.1144   0.1179   0.1256   0.2445   0.9383   0.9492
     2.1994   3.5708   4.3156   4.3212   6.0614   6.0638

 ------ SPIN DOWN ----------

          k = 0.2500 0.2500 0.2500 (  1346 PWs)   bands (ev):

   -10.3315  -0.6585  -0.5288  -0.5224  -0.1959  -0.0940  -0.0850  -0.0809
    -0.0626  -0.0602  -0.0505  -0.0285   0.0281   0.0328   0.0437   0.0674
     0.0694   0.1244   0.1304   0.1528   0.1587   0.2687   1.2011   1.2049
     2.6108   3.7065   4.5294   4.5362   6.0927   6.0975

     the Fermi energy is     2.4051 ev

!    total energy              =    -877.03460879 Ry
     Harris-Foulkes estimate   =    -877.03460878 Ry
     estimated scf accuracy    <       0.00000007 Ry

     total all-electron energy =    -13345.852471 Ry

     The total energy is the sum of the following terms:

     one-electron contribution =    -260.40201162 Ry
     hartree contribution      =     181.43040780 Ry
     xc contribution           =    -181.25778082 Ry
     ewald contribution        =    -250.04933581 Ry
     one-center paw contrib.   =    -366.74951547 Ry
     smearing contrib. (-TS)   =      -0.00637286 Ry

     total magnetization       =     0.71 Bohr mag/cell
     absolute magnetization    =     0.93 Bohr mag/cell

     convergence has been achieved in  14 iterations

     Writing output data file Cu3N.save

     General routines

     Parallel routines

   This run was terminated on:  19:30:33  11Feb2020

   JOB DONE.