     Program PWSCF v.6.0 (svn rev. 13079) starts on 11Feb2020 at 19:36:12

     Current dimensions of program PWSCF are:
     Max number of different atomic species (ntypx) = 10
     Max number of k-points (npk) =  40000
     Max angular momentum in pseudopotentials (lmaxx) =  3
               file Cu.pbe-dn-kjpaw_psl.1.0.0.UPF: wavefunction(s)  4S 3D renormalized
               file N.pbe-n-kjpaw_psl.1.0.0.UPF: wavefunction(s)  2S renormalized

     Subspace diagonalization in iterative solution of the eigenvalue problem:
     a serial algorithm will be used

     bravais-lattice index     =            0
     lattice parameter (alat)  =       9.6376  a.u.
     unit-cell volume          =     895.1733 (a.u.)^3
     number of atoms/cell      =            5
     number of atomic types    =            2
     number of electrons       =        49.00
     number of Kohn-Sham states=           30
     kinetic-energy cutoff     =      25.0000  Ry
     charge density cutoff     =     200.0000  Ry
     convergence threshold     =      1.0E-07
     mixing beta               =       0.7000
     number of iterations used =            8  plain     mixing
     Exchange-correlation      =  SLA  PW   PBX  PBC ( 1  4  3  4 0 0)

     celldm(1)=   9.637603  celldm(2)=   0.000000  celldm(3)=   0.000000
     celldm(4)=   0.000000  celldm(5)=   0.000000  celldm(6)=   0.000000

     crystal axes: (cart. coord. in units of alat)
               a(1) = (   1.000000   0.000000   0.000000 )
               a(2) = (   0.000000   1.000000   0.000000 )
               a(3) = (   0.000000   0.000000   1.000000 )

     reciprocal axes: (cart. coord. in units 2 pi/alat)
               b(1) = (  1.000000  0.000000  0.000000 )
               b(2) = (  0.000000  1.000000  0.000000 )
               b(3) = (  0.000000  0.000000  1.000000 )

     PseudoPot. # 1 for Cu read from file:
     ../pseudo/Cu.pbe-dn-kjpaw_psl.1.0.0.UPF
     MD5 check sum: cfffd1f38ee05704b3e17f46f1730a6f
     Pseudo is Projector augmented-wave + core cor, Zval = 11.0
     Generated using "atomic" code by A. Dal Corso  v.6.3
     Shape of augmentation charge: PSQ
     Using radial grid of 1199 points,  6 beta functions with:
                l(1) =   0
                l(2) =   0
                l(3) =   1
                l(4) =   1
                l(5) =   2
                l(6) =   2
     Q(r) pseudized with 0 coefficients

     PseudoPot. # 2 for  N read from file:
     ../pseudo/N.pbe-n-kjpaw_psl.1.0.0.UPF
     MD5 check sum: 14c48229446f9f2d411169a3abcbc3fa
     Pseudo is Projector augmented-wave + core cor, Zval =  5.0
     Generated using "atomic" code by A. Dal Corso  v.6.3
     Shape of augmentation charge: PSQ
     Using radial grid of 1085 points,  4 beta functions with:
                l(1) =   0
                l(2) =   0
                l(3) =   1
                l(4) =   1
     Q(r) pseudized with 0 coefficients

     atomic species   valence    mass     pseudopotential
        Cu            11.00     1.00000     Cu( 1.00)
        N              5.00     1.00000      N( 1.00)

     Starting magnetic structure
     atomic species   magnetization
        Cu           0.000
        N            0.500

     16 Sym. Ops., with inversion, found
          (note: 32 additional sym.ops. were found but ignored
           their fractional translations are incommensurate with FFT grid)

   Cartesian axes

     site n.     atom                  positions (alat units)
         1           Cu  tau(   1) = (   0.0000000   0.0000000   0.0000000  )
         2           Cu  tau(   2) = (   0.5000000   0.5000000   0.0000000  )
         3           Cu  tau(   3) = (   0.0000000   0.5000000   0.5000000  )
         4           Cu  tau(   4) = (   0.5000000   0.0000000   0.5000000  )
         5           N   tau(   5) = (   0.0000000   0.5000000   1.0000000  )

     number of k points=     1  gaussian smearing, width (Ry)=  0.0200
                       cart. coord. in units 2pi/alat
        k(    1) = (   0.2500000   0.2500000   0.2500000), wk =   1.0000000

     Check: negative/imaginary core charge=   -0.000014    0.000000

     Initial potential from superposition of free atoms

     starting charge   48.99908, renormalised to   49.00000
     Starting wfc are   40 randomized atomic wfcs
     Checking if some PAW data can be deallocated...

     Self-consistent Calculation

     iteration #  1     ecut=    25.00 Ry     beta=0.70
     Davidson diagonalization with overlap
     ethr =  1.00E-02,  avg # of iterations =  2.0

     Threshold (ethr) on eigenvalues was too large:
     Diagonalizing with lowered threshold

     Davidson diagonalization with overlap
     ethr =  7.24E-04,  avg # of iterations =  1.0

     total energy              =    -879.17972174 Ry
     Harris-Foulkes estimate   =    -879.36153596 Ry
     estimated scf accuracy    <       0.35153908 Ry

     total magnetization       =     1.00 Bohr mag/cell
     absolute magnetization    =     1.71 Bohr mag/cell

[...]

     total energy              =    -879.38590581 Ry
     Harris-Foulkes estimate   =    -879.38591441 Ry
     estimated scf accuracy    <       0.00000011 Ry

[...]

     iteration # 15     ecut=    25.00 Ry     beta=0.70
     Davidson diagonalization with overlap
     ethr =  2.20E-10,  avg # of iterations =  4.0

     Magnetic moment per site:
     atom:    1    charge:    9.5132    magn:    0.0210    constr:    0.0000
     atom:    2    charge:    9.5127    magn:    0.0210    constr:    0.0000
     atom:    3    charge:    9.5127    magn:    0.0210    constr:    0.0000
     atom:    4    charge:    9.5616    magn:    0.0212    constr:    0.0000
     atom:    5    charge:    4.7425    magn:    0.1633    constr:    0.0000

     End of self-consistent calculation

 ------ SPIN UP ------------

          k = 0.2500 0.2500 0.2500 (  1899 PWs)   bands (ev):

   -10.2879  -0.6926  -0.3330  -0.3330   0.2036   0.5607   0.5607   0.5660
     0.6434   0.6434   0.7343   0.7343   0.7701   0.7917   0.7917   0.8230
     0.9247   0.9343   0.9343   0.9915   1.0337   1.0337   1.4101   1.4101
     2.3225   3.5417   4.2138   4.2138   5.9161   5.9162

 ------ SPIN DOWN ----------

          k = 0.2500 0.2500 0.2500 (  1899 PWs)   bands (ev):

   -10.0350  -0.6244  -0.2339  -0.2339   0.2600   0.5840   0.5840   0.5954
     0.6590   0.6590   0.7508   0.7508   0.7897   0.8194   0.8194   0.8372
     0.9430   0.9474   0.9474   1.0069   1.0500   1.0500   1.4686   1.4686
     2.4575   3.5896   4.2951   4.2951   5.9275   5.9276

     the Fermi energy is     2.3900 ev

!    total energy              =    -879.38592050 Ry
     Harris-Foulkes estimate   =    -879.38591833 Ry
     estimated scf accuracy    <       0.00000004 Ry

     total all-electron energy =    -13348.203783 Ry

     The total energy is the sum of the following terms:

     one-electron contribution =    -265.91197779 Ry
     hartree contribution      =     186.40462583 Ry
     xc contribution           =    -182.81645276 Ry
     ewald contribution        =    -250.04933580 Ry
     one-center paw contrib.   =    -367.00216903 Ry
     smearing contrib. (-TS)   =      -0.01061095 Ry

     total magnetization       =     0.27 Bohr mag/cell
     absolute magnetization    =     0.36 Bohr mag/cell

     convergence has been achieved in  15 iterations

     Writing output data file Cu3N.save

     General routines

     Parallel routines

   This run was terminated on:  19:37:45  11Feb2020

   JOB DONE.