     Program PWSCF v.6.0 (svn rev. 13079) starts on 11Feb2020 at 19:41:33

     Current dimensions of program PWSCF are:
     Max number of different atomic species (ntypx) = 10
     Max number of k-points (npk) =  40000
     Max angular momentum in pseudopotentials (lmaxx) =  3
               file Cu.pbe-dn-kjpaw_psl.1.0.0.UPF: wavefunction(s)  4S 3D renormalized
               file N.pbe-n-kjpaw_psl.1.0.0.UPF: wavefunction(s)  2S renormalized

     Subspace diagonalization in iterative solution of the eigenvalue problem:
     a serial algorithm will be used

     bravais-lattice index     =            0
     lattice parameter (alat)  =       9.6376  a.u.
     unit-cell volume          =     895.1733 (a.u.)^3
     number of atoms/cell      =            5
     number of atomic types    =            2
     number of electrons       =        49.00
     number of Kohn-Sham states=           30
     kinetic-energy cutoff     =      20.0000  Ry
     charge density cutoff     =     240.0000  Ry
     convergence threshold     =      1.0E-07
     mixing beta               =       0.7000
     number of iterations used =            8  plain     mixing
     Exchange-correlation      =  SLA  PW   PBX  PBC ( 1  4  3  4 0 0)

     celldm(1)=   9.637603  celldm(2)=   0.000000  celldm(3)=   0.000000
     celldm(4)=   0.000000  celldm(5)=   0.000000  celldm(6)=   0.000000

     crystal axes: (cart. coord. in units of alat)
               a(1) = (   1.000000   0.000000   0.000000 )
               a(2) = (   0.000000   1.000000   0.000000 )
               a(3) = (   0.000000   0.000000   1.000000 )

     reciprocal axes: (cart. coord. in units 2 pi/alat)
               b(1) = (  1.000000  0.000000  0.000000 )
               b(2) = (  0.000000  1.000000  0.000000 )
               b(3) = (  0.000000  0.000000  1.000000 )

     PseudoPot. # 1 for Cu read from file:
     ../pseudo/Cu.pbe-dn-kjpaw_psl.1.0.0.UPF
     MD5 check sum: cfffd1f38ee05704b3e17f46f1730a6f
     Pseudo is Projector augmented-wave + core cor, Zval = 11.0
     Generated using "atomic" code by A. Dal Corso  v.6.3
     Shape of augmentation charge: PSQ
     Using radial grid of 1199 points,  6 beta functions with:
                l(1) =   0
                l(2) =   0
                l(3) =   1
                l(4) =   1
                l(5) =   2
                l(6) =   2
     Q(r) pseudized with 0 coefficients

     PseudoPot. # 2 for  N read from file:
     ../pseudo/N.pbe-n-kjpaw_psl.1.0.0.UPF
     MD5 check sum: 14c48229446f9f2d411169a3abcbc3fa
     Pseudo is Projector augmented-wave + core cor, Zval =  5.0
     Generated using "atomic" code by A. Dal Corso  v.6.3
     Shape of augmentation charge: PSQ
     Using radial grid of 1085 points,  4 beta functions with:
                l(1) =   0
                l(2) =   0
                l(3) =   1
                l(4) =   1
     Q(r) pseudized with 0 coefficients

     atomic species   valence    mass     pseudopotential
        Cu            11.00     1.00000     Cu( 1.00)
        N              5.00     1.00000      N( 1.00)

     Starting magnetic structure
     atomic species   magnetization
        Cu           0.000
        N            0.500

     48 Sym. Ops., with inversion, found (32 have fractional translation)

   Cartesian axes

     site n.     atom                  positions (alat units)
         1           Cu  tau(   1) = (   0.0000000   0.0000000   0.0000000  )
         2           Cu  tau(   2) = (   0.5000000   0.5000000   0.0000000  )
         3           Cu  tau(   3) = (   0.0000000   0.5000000   0.5000000  )
         4           Cu  tau(   4) = (   0.5000000   0.0000000   0.5000000  )
         5           N   tau(   5) = (   0.0000000   0.5000000   1.0000000  )

     number of k points=     1  gaussian smearing, width (Ry)=  0.0200
                       cart. coord. in units 2pi/alat
        k(    1) = (   0.2500000   0.2500000   0.2500000), wk =   1.0000000

     Check: negative/imaginary core charge=   -0.000006    0.000000

     Initial potential from superposition of free atoms

     starting charge   48.99908, renormalised to   49.00000
     Starting wfc are   40 randomized atomic wfcs
     Checking if some PAW data can be deallocated...

     Self-consistent Calculation

     iteration #  1     ecut=    20.00 Ry     beta=0.70
     Davidson diagonalization with overlap
     ethr =  1.00E-02,  avg # of iterations =  2.0

     total energy              =    -876.37081093 Ry
     Harris-Foulkes estimate   =    -877.18069861 Ry
     estimated scf accuracy    <       1.21544634 Ry

     total magnetization       =     0.98 Bohr mag/cell
     absolute magnetization    =     1.74 Bohr mag/cell

[...]

     total energy              =    -876.99180876 Ry
     Harris-Foulkes estimate   =    -876.99180878 Ry
     estimated scf accuracy    <       0.00000114 Ry

[...]

     iteration # 14     ecut=    20.00 Ry     beta=0.70
     Davidson diagonalization with overlap
     ethr =  5.29E-10,  avg # of iterations =  3.0

     Magnetic moment per site:
     atom:    1    charge:    9.6151    magn:    0.0232    constr:    0.0000
     atom:    2    charge:    9.6151    magn:    0.0232    constr:    0.0000
     atom:    3    charge:    9.6151    magn:    0.0232    constr:    0.0000
     atom:    4    charge:    9.6498    magn:    0.0513    constr:    0.0000
     atom:    5    charge:    4.6827    magn:    0.3481    constr:    0.0000

     End of self-consistent calculation

 ------ SPIN UP ------------

          k = 0.2500 0.2500 0.2500 (  1346 PWs)   bands (ev):

   -10.9744  -0.8730  -0.7591  -0.7591  -0.3445  -0.2160  -0.2160  -0.1627
    -0.1411  -0.1411  -0.0816  -0.0816  -0.0754  -0.0371  -0.0371  -0.0287
     0.0482   0.0482   0.0612   0.0612   0.0814   0.1966   0.9144   0.9144
     2.1775   3.5101   4.2426   4.2426   5.9821   5.9821

 ------ SPIN DOWN ----------

          k = 0.2500 0.2500 0.2500 (  1346 PWs)   bands (ev):

   -10.4263  -0.7260  -0.6078  -0.6078  -0.2941  -0.1783  -0.1783  -0.1239
    -0.1154  -0.1154  -0.0583  -0.0583  -0.0391  -0.0179  -0.0179  -0.0138
     0.0712   0.0712   0.0868   0.0868   0.0984   0.2407   1.0855   1.0855
     2.4666   3.6076   4.4117   4.4117   6.0142   6.0142

     the Fermi energy is     2.3220 ev

!    total energy              =    -876.99180985 Ry
     Harris-Foulkes estimate   =    -876.99180961 Ry
     estimated scf accuracy    <          7.8E-09 Ry

     total all-electron energy =    -13345.809672 Ry

     The total energy is the sum of the following terms:

     one-electron contribution =    -260.30256274 Ry
     hartree contribution      =     181.31008164 Ry
     xc contribution           =    -181.19124923 Ry
     ewald contribution        =    -250.04933580 Ry
     one-center paw contrib.   =    -366.75023357 Ry
     smearing contrib. (-TS)   =      -0.00851015 Ry

     total magnetization       =     0.55 Bohr mag/cell
     absolute magnetization    =     0.69 Bohr mag/cell

     convergence has been achieved in  14 iterations

     Writing output data file Cu3N.save

     General routines

     Parallel routines

   This run was terminated on:  19:43: 7  11Feb2020

   JOB DONE.