     Program PWSCF v.6.0 (svn rev. 13079) starts on 11Feb2020 at 19:37:46

     Current dimensions of program PWSCF are:
     Max number of different atomic species (ntypx) = 10
     Max number of k-points (npk) =  40000
     Max angular momentum in pseudopotentials (lmaxx) =  3
               file Cu.pbe-dn-kjpaw_psl.1.0.0.UPF: wavefunction(s)  4S 3D renormalized
               file N.pbe-n-kjpaw_psl.1.0.0.UPF: wavefunction(s)  2S renormalized

     Subspace diagonalization in iterative solution of the eigenvalue problem:
     a serial algorithm will be used

     bravais-lattice index     =            0
     lattice parameter (alat)  =       9.6376  a.u.
     unit-cell volume          =     895.1733 (a.u.)^3
     number of atoms/cell      =            5
     number of atomic types    =            2
     number of electrons       =        49.00
     number of Kohn-Sham states=           30
     kinetic-energy cutoff     =       5.0000  Ry
     charge density cutoff     =      60.0000  Ry
     convergence threshold     =      1.0E-07
     mixing beta               =       0.7000
     number of iterations used =            8  plain     mixing
     Exchange-correlation      =  SLA  PW   PBX  PBC ( 1  4  3  4 0 0)

     celldm(1)=   9.637603  celldm(2)=   0.000000  celldm(3)=   0.000000
     celldm(4)=   0.000000  celldm(5)=   0.000000  celldm(6)=   0.000000

     crystal axes: (cart. coord. in units of alat)
               a(1) = (   1.000000   0.000000   0.000000 )
               a(2) = (   0.000000   1.000000   0.000000 )
               a(3) = (   0.000000   0.000000   1.000000 )

     reciprocal axes: (cart. coord. in units 2 pi/alat)
               b(1) = (  1.000000  0.000000  0.000000 )
               b(2) = (  0.000000  1.000000  0.000000 )
               b(3) = (  0.000000  0.000000  1.000000 )

     PseudoPot. # 1 for Cu read from file:
     ../pseudo/Cu.pbe-dn-kjpaw_psl.1.0.0.UPF
     MD5 check sum: cfffd1f38ee05704b3e17f46f1730a6f
     Pseudo is Projector augmented-wave + core cor, Zval = 11.0
     Generated using "atomic" code by A. Dal Corso  v.6.3
     Shape of augmentation charge: PSQ
     Using radial grid of 1199 points,  6 beta functions with:
                l(1) =   0
                l(2) =   0
                l(3) =   1
                l(4) =   1
                l(5) =   2
                l(6) =   2
     Q(r) pseudized with 0 coefficients

     PseudoPot. # 2 for  N read from file:
     ../pseudo/N.pbe-n-kjpaw_psl.1.0.0.UPF
     MD5 check sum: 14c48229446f9f2d411169a3abcbc3fa
     Pseudo is Projector augmented-wave + core cor, Zval =  5.0
     Generated using "atomic" code by A. Dal Corso  v.6.3
     Shape of augmentation charge: PSQ
     Using radial grid of 1085 points,  4 beta functions with:
                l(1) =   0
                l(2) =   0
                l(3) =   1
                l(4) =   1
     Q(r) pseudized with 0 coefficients

     atomic species   valence    mass     pseudopotential
        Cu            11.00     1.00000     Cu( 1.00)
        N              5.00     1.00000      N( 1.00)

     Starting magnetic structure
     atomic species   magnetization
        Cu           0.000
        N            0.500

     48 Sym. Ops., with inversion, found (32 have fractional translation)

   Cartesian axes

     site n.     atom                  positions (alat units)
         1           Cu  tau(   1) = (   0.0000000   0.0000000   0.0000000  )
         2           Cu  tau(   2) = (   0.5000000   0.5000000   0.0000000  )
         3           Cu  tau(   3) = (   0.0000000   0.5000000   0.5000000  )
         4           Cu  tau(   4) = (   0.5000000   0.0000000   0.5000000  )
         5           N   tau(   5) = (   0.0000000   0.5000000   1.0000000  )

     number of k points=     1  gaussian smearing, width (Ry)=  0.0200
                       cart. coord. in units 2pi/alat
        k(    1) = (   0.2500000   0.2500000   0.2500000), wk =   1.0000000

     Check: negative/imaginary core charge=   -0.001089    0.000000

     Initial potential from superposition of free atoms

     starting charge   48.99908, renormalised to   49.00000
     Starting wfc are   40 randomized atomic wfcs
     Checking if some PAW data can be deallocated...

     Self-consistent Calculation

     iteration #  1     ecut=     5.00 Ry     beta=0.70
     Davidson diagonalization with overlap
     ethr =  1.00E-02,  avg # of iterations =  3.5

     total energy              =    -705.36136971 Ry
     Harris-Foulkes estimate   =    -851.81119212 Ry
     estimated scf accuracy    <     169.67011850 Ry

     total magnetization       =     0.40 Bohr mag/cell
     absolute magnetization    =     0.62 Bohr mag/cell

[...]

     negative rho (up, down):  2.393E-03 2.415E-03

[...]

     total energy              =    -746.58547281 Ry
     Harris-Foulkes estimate   =    -746.58547298 Ry
     estimated scf accuracy    <       0.00000042 Ry

[...]

     iteration # 16     ecut=     5.00 Ry     beta=0.70
     Davidson diagonalization with overlap
     ethr =  8.67E-10,  avg # of iterations =  3.0

     negative rho (up, down):  3.671E-03 3.695E-03

     Magnetic moment per site:
     atom:    1    charge:    7.5113    magn:    0.0519    constr:    0.0000
     atom:    2    charge:    7.5113    magn:    0.0519    constr:    0.0000
     atom:    3    charge:    7.5113    magn:    0.0519    constr:    0.0000
     atom:    4    charge:    7.3869    magn:    0.0045    constr:    0.0000
     atom:    5    charge:    3.5937    magn:    0.5175    constr:    0.0000

     End of self-consistent calculation

 ------ SPIN UP ------------

          k = 0.2500 0.2500 0.2500 (   172 PWs)   bands (ev):

   -20.3556 -20.1937 -19.9212 -19.9212 -17.1450  -4.2661  -4.2661  -3.7846
    -3.6565  -3.6565  -3.5012  -3.4147  -3.4147  -3.2723  -3.2723  -3.1693
    -3.0699   2.9925   3.5179   3.5179   3.9558   3.9558   4.4968   5.9418
     5.9418   6.8601   7.4234   7.4234   8.2865   8.5377

 ------ SPIN DOWN ----------

          k = 0.2500 0.2500 0.2500 (   172 PWs)   bands (ev):

   -20.3026 -20.1407 -19.8748 -19.8748 -16.4073  -4.1565  -4.1565  -3.7564
    -3.6182  -3.6182  -3.4211  -3.3873  -3.3873  -3.2202  -3.2202  -3.0760
    -3.0196   3.2385   3.5860   3.5860   3.9961   3.9961   4.5679   6.4515
     6.4515   6.9808   7.4781   7.4781   8.3331   9.2171

     the Fermi energy is     6.4489 ev

!    total energy              =    -746.58547290 Ry
     Harris-Foulkes estimate   =    -746.58547289 Ry
     estimated scf accuracy    <          4.3E-10 Ry

     total all-electron energy =    -13215.403335 Ry

     The total energy is the sum of the following terms:

     one-electron contribution =     -25.82103918 Ry
     hartree contribution      =      39.73507866 Ry
     xc contribution           =    -140.16807608 Ry
     ewald contribution        =    -250.04933579 Ry
     one-center paw contrib.   =    -370.26976919 Ry
     smearing contrib. (-TS)   =      -0.01233133 Ry

     total magnetization       =     1.02 Bohr mag/cell
     absolute magnetization    =     1.02 Bohr mag/cell

     convergence has been achieved in  16 iterations

     Writing output data file Cu3N.save

     General routines

     Parallel routines

   This run was terminated on:  19:38:52  11Feb2020

   JOB DONE.