     Program PWSCF v.6.0 (svn rev. 13079) starts on 11Feb2020 at 19:25:41

     Current dimensions of program PWSCF are:
     Max number of different atomic species (ntypx) = 10
     Max number of k-points (npk) =  40000
     Max angular momentum in pseudopotentials (lmaxx) =  3
               file Cu.pbe-dn-kjpaw_psl.1.0.0.UPF: wavefunction(s)  4S 3D renormalized
               file N.pbe-n-kjpaw_psl.1.0.0.UPF: wavefunction(s)  2S renormalized

     Subspace diagonalization in iterative solution of the eigenvalue problem:
     a serial algorithm will be used

     bravais-lattice index     =            0
     lattice parameter (alat)  =       9.6376  a.u.
     unit-cell volume          =     895.1733 (a.u.)^3
     number of atoms/cell      =            5
     number of atomic types    =            2
     number of electrons       =        49.00
     number of Kohn-Sham states=           30
     kinetic-energy cutoff     =       5.0000  Ry
     charge density cutoff     =      20.0000  Ry
     convergence threshold     =      1.0E-07
     mixing beta               =       0.7000
     number of iterations used =            8  plain     mixing
     Exchange-correlation      =  SLA  PW   PBX  PBC ( 1  4  3  4 0 0)

     celldm(1)=   9.637603  celldm(2)=   0.000000  celldm(3)=   0.000000
     celldm(4)=   0.000000  celldm(5)=   0.000000  celldm(6)=   0.000000

     crystal axes: (cart. coord. in units of alat)
               a(1) = (   1.000000   0.000000   0.000000 )
               a(2) = (   0.000000   1.000000   0.000000 )
               a(3) = (   0.000000   0.000000   1.000000 )

     reciprocal axes: (cart. coord. in units 2 pi/alat)
               b(1) = (  1.000000  0.000000  0.000000 )
               b(2) = (  0.000000  1.000000  0.000000 )
               b(3) = (  0.000000  0.000000  1.000000 )

     PseudoPot. # 1 for Cu read from file:
     ../pseudo/Cu.pbe-dn-kjpaw_psl.1.0.0.UPF
     MD5 check sum: cfffd1f38ee05704b3e17f46f1730a6f
     Pseudo is Projector augmented-wave + core cor, Zval = 11.0
     Generated using "atomic" code by A. Dal Corso  v.6.3
     Shape of augmentation charge: PSQ
     Using radial grid of 1199 points,  6 beta functions with:
                l(1) =   0
                l(2) =   0
                l(3) =   1
                l(4) =   1
                l(5) =   2
                l(6) =   2
     Q(r) pseudized with 0 coefficients

     PseudoPot. # 2 for  N read from file:
     ../pseudo/N.pbe-n-kjpaw_psl.1.0.0.UPF
     MD5 check sum: 14c48229446f9f2d411169a3abcbc3fa
     Pseudo is Projector augmented-wave + core cor, Zval =  5.0
     Generated using "atomic" code by A. Dal Corso  v.6.3
     Shape of augmentation charge: PSQ
     Using radial grid of 1085 points,  4 beta functions with:
                l(1) =   0
                l(2) =   0
                l(3) =   1
                l(4) =   1
     Q(r) pseudized with 0 coefficients

     atomic species   valence    mass     pseudopotential
        Cu            11.00     1.00000     Cu( 1.00)
        N              5.00     1.00000      N( 1.00)

     Starting magnetic structure
     atomic species   magnetization
        Cu           0.000
        N            0.500

     16 Sym. Ops., with inversion, found
          (note: 32 additional sym.ops. were found but ignored
           their fractional translations are incommensurate with FFT grid)

   Cartesian axes

     site n.     atom                  positions (alat units)
         1           Cu  tau(   1) = (   0.0000000   0.0000000   0.0000000  )
         2           Cu  tau(   2) = (   0.5000000   0.5000000   0.0000000  )
         3           Cu  tau(   3) = (   0.0000000   0.5000000   0.5000000  )
         4           Cu  tau(   4) = (   0.5000000   0.0000000   0.5000000  )
         5           N   tau(   5) = (   0.0000000   0.5000000   1.0000000  )

     number of k points=     1  gaussian smearing, width (Ry)=  0.0200
                       cart. coord. in units 2pi/alat
        k(    1) = (   0.2500000   0.2500000   0.2500000), wk =   1.0000000

     Check: negative/imaginary core charge=   -0.024215    0.000000

     Initial potential from superposition of free atoms
     Check: negative starting charge=(component1):   -1.564380
     Check: negative starting charge=(component2):   -1.638667

     starting charge   48.99908, renormalised to   49.00000

     negative rho (up, down):  1.564E+00 1.639E+00
     Starting wfc are   40 randomized atomic wfcs
     Checking if some PAW data can be deallocated...

     Self-consistent Calculation

     iteration #  1     ecut=     5.00 Ry     beta=0.70
     Davidson diagonalization with overlap
     ethr =  1.00E-02,  avg # of iterations =  3.5

     total energy              =    -716.10464987 Ry
     Harris-Foulkes estimate   =    -871.03010167 Ry
     estimated scf accuracy    <     170.98274656 Ry

     total magnetization       =     0.84 Bohr mag/cell
     absolute magnetization    =     0.84 Bohr mag/cell

[...]

     negative rho (up, down):  6.765E-02 6.944E-02

[...]

     total energy              =    -757.82643169 Ry
     Harris-Foulkes estimate   =    -757.82642690 Ry
     estimated scf accuracy    <       0.00000104 Ry

[...]

     iteration # 18     ecut=     5.00 Ry     beta=0.70
     Davidson diagonalization with overlap
     ethr =  2.12E-09,  avg # of iterations =  4.0

     negative rho (up, down):  2.312E-01 2.339E-01

     Magnetic moment per site:
     atom:    1    charge:    7.4422    magn:    0.0553    constr:    0.0000
     atom:    2    charge:    7.4823    magn:    0.0534    constr:    0.0000
     atom:    3    charge:    7.4823    magn:    0.0534    constr:    0.0000
     atom:    4    charge:    7.3465    magn:   -0.0209    constr:    0.0000
     atom:    5    charge:    3.4569    magn:    0.5700    constr:    0.0000

     End of self-consistent calculation

 ------ SPIN UP ------------

          k = 0.2500 0.2500 0.2500 (   172 PWs)   bands (ev):

   -21.3708 -20.9958 -20.8908 -20.8341 -18.0621  -5.4688  -5.4135  -4.9134
    -4.7062  -4.6760  -4.5272  -4.5206  -4.4934  -4.3280  -4.2535  -4.2457
    -4.1117   2.0328   2.7720   2.8026   2.9812   3.0881   3.5553   4.8815
     4.9595   5.9520   6.4053   6.4635   7.4553   7.4732

 ------ SPIN DOWN ----------

          k = 0.2500 0.2500 0.2500 (   172 PWs)   bands (ev):

   -21.2460 -20.9459 -20.9017 -20.7018 -17.2970  -5.2277  -5.1442  -4.7962
    -4.6822  -4.6578  -4.5097  -4.5033  -4.4357  -4.2452  -4.2122  -4.1662
    -4.0644   2.4426   2.9155   2.9410   3.0493   3.1602   3.6464   5.5298
     5.6949   6.1715   6.5643   6.6736   7.5240   8.3885

     the Fermi energy is     5.6029 ev

!    total energy              =    -757.82643339 Ry
     Harris-Foulkes estimate   =    -757.82643832 Ry
     estimated scf accuracy    <       0.00000003 Ry

     total all-electron energy =    -13226.644296 Ry

     The total energy is the sum of the following terms:

     one-electron contribution =     -23.23052322 Ry
     hartree contribution      =      36.96917315 Ry
     xc contribution           =    -151.30288228 Ry
     ewald contribution        =    -250.04933614 Ry
     one-center paw contrib.   =    -370.20139747 Ry
     smearing contrib. (-TS)   =      -0.01146743 Ry

     total magnetization       =     1.07 Bohr mag/cell
     absolute magnetization    =     1.18 Bohr mag/cell

     convergence has been achieved in  18 iterations

     Writing output data file Cu3N.save

     General routines

     Parallel routines

   This run was terminated on:  19:26:58  11Feb2020

   JOB DONE.