     Program PHONON v.6.0 (svn rev. 13079) starts on  1Jul2020 at 15:22:16

     Reading data from directory:
     ./tmp/Cu2N.save

   Info: using nr1, nr2, nr3 values from input

[...]

     IMPORTANT: XC functional enforced from input :
     Exchange-correlation      =  SLA  PW   PBX  PBC ( 1  4  3  4 0 0)
     Any further DFT definition will be discarded
     Please, verify this is what you really want

               file Cu.pbe-dn-kjpaw_psl.1.0.0.UPF: wavefunction(s)  4S 3D renormalized
               file N.pbe-n-kjpaw_psl.1.0.0.UPF: wavefunction(s)  2S renormalized

     Generating pointlists ...
     new r_m :   0.1969 (alat units)  1.3792 (a.u.) for type    1
     new r_m :   0.1969 (alat units)  1.3792 (a.u.) for type    2

     Check: negative/imaginary core charge=   -0.000075    0.000000

     Dynamical matrices for ( 2, 2, 2)  uniform grid of q-points
     (   8q-points):
       N         xq(1)         xq(2)         xq(3)
       1   0.000000000   0.000000000   0.000000000
       2   0.000000000   0.000000000  -0.500000000
       3   0.000000000  -0.500062172   0.000000000
       4   0.000000000  -0.500062172  -0.500000000
       5  -0.500000000   0.000000000   0.000000000
       6  -0.500000000   0.000000000  -0.500000000
       7  -0.500000000  -0.500062172   0.000000000
       8  -0.500000000  -0.500062172  -0.500000000

     Calculation of q =    0.0000000   0.0000000   0.0000000

     bravais-lattice index     =            0
     lattice parameter (alat)  =       7.0055  a.u.
     unit-cell volume          =     343.7659 (a.u.)^3
     number of atoms/cell      =            5
     number of atomic types    =            2
     kinetic-energy cut-off    =      30.0000  Ry
     charge density cut-off    =     120.0000  Ry
     convergence threshold     =      1.0E-12
     beta                      =       0.7000
     number of iterations used =            4
     Exchange-correlation      =  SLA  PW   PBX  PBC ( 1  4  3  4 0 0)

     celldm(1)=    7.00550  celldm(2)=    0.00000  celldm(3)=    0.00000
     celldm(4)=    0.00000  celldm(5)=    0.00000  celldm(6)=    0.00000

     crystal axes: (cart. coord. in units of alat)
               a(1) = (  1.0000  0.0000  0.0000 )
               a(2) = (  0.0000  0.9999  0.0000 )
               a(3) = (  0.0000  0.0000  1.0000 )

     reciprocal axes: (cart. coord. in units 2 pi/alat)
               b(1) = (  1.0000  0.0000  0.0000 )
               b(2) = (  0.0000  1.0001  0.0000 )
               b(3) = (  0.0000  0.0000  1.0000 )

     Atoms inside the unit cell:

     Cartesian axes

     site n.  atom      mass           positions (alat units)
        1     Cu  63.5460   tau(    1) = (    0.00000    0.00000    0.00000  )
        2     Cu  63.5460   tau(    2) = (    0.50000    0.49994    0.00000  )
        3     Cu  63.5460   tau(    3) = (    0.00000    0.49994    0.47492  )
        4     Cu  63.5460   tau(    4) = (    0.50000    0.00000    0.47479  )
        5     N   14.0070   tau(    5) = (    0.00000    0.49994    0.99764  )

     Computing dynamical matrix for
                    q = (   0.0000000   0.0000000   0.0000000 )

      5 Sym.Ops. (with q -> -q+G )

     G cutoff =  149.1761  (    514 G-vectors)     FFT grid: ( 25, 25, 25)

     number of k points=    16  gaussian smearing, width (Ry)=  0.0200

     PseudoPot. # 1 for Cu read from file:
     ../../pseudo/Cu.pbe-dn-kjpaw_psl.1.0.0.UPF
     MD5 check sum: d0575d8777d02cc05b6679c1e3a9a036
     Pseudo is Projector augmented-wave + core cor, Zval = 11.0
     Generated using "atomic" code by A. Dal Corso  v.6.3
     Shape of augmentation charge: PSQ
     Using radial grid of 1199 points,  6 beta functions with:
                l(1) =   0
                l(2) =   0
                l(3) =   1
                l(4) =   1
                l(5) =   2
                l(6) =   2
     Q(r) pseudized with 0 coefficients

     PseudoPot. # 2 for  N read from file:
     ../../pseudo/N.pbe-n-kjpaw_psl.1.0.0.UPF
     MD5 check sum: 57d39628416b425e94b4a4c0ec66cafa
     Pseudo is Projector augmented-wave + core cor, Zval =  5.0
     Generated using "atomic" code by A. Dal Corso  v.6.3
     Shape of augmentation charge: PSQ
     Using radial grid of 1085 points,  4 beta functions with:
                l(1) =   0
                l(2) =   0
                l(3) =   1
                l(4) =   1
     Q(r) pseudized with 0 coefficients

     Mode symmetry, C_2v (mm2)  point group:

     Atomic displacements:
     There are  15 irreducible representations

     Representation     1      1 modes -A_1  D_1  S_1  To be done

[...]

     Alpha used in Ewald sum =   1.1000

     Representation #  1 mode #   1

     Self-consistent Calculation

     Pert. #  1: Fermi energy shift (Ry) =    -8.4816E-04     0.0000E+00

      thresh= 1.000E-02 alpha_mix =  0.700 |ddv_scf|^2 =  2.832E-05

[...]

     End of self-consistent calculation

     Convergence has been achieved

[...]

     Pert. #  1: Fermi energy shift (Ry) =     0.0000E+00     0.0000E+00

[...]

     Number of q in the star =    1
     List of q in the star:
          1   0.000000000   0.000000000   0.000000000

     Diagonalizing the dynamical matrix

     q = (    0.000000000   0.000000000   0.000000000 )

     freq (    1) =      -0.918376 [THz] =     -30.633735 [cm-1]
     freq (    2) =       0.433215 [THz] =      14.450497 [cm-1]
     freq (    3) =       1.425569 [THz] =      47.551864 [cm-1]
     freq (    4) =       3.154470 [THz] =     105.221808 [cm-1]
     freq (    5) =       3.156035 [THz] =     105.273981 [cm-1]
     freq (    6) =       3.199999 [THz] =     106.740476 [cm-1]
     freq (    7) =       4.434778 [THz] =     147.928280 [cm-1]
     freq (    8) =       4.498929 [THz] =     150.068117 [cm-1]
     freq (    9) =       4.837984 [THz] =     161.377785 [cm-1]
     freq (   10) =       5.721288 [THz] =     190.841636 [cm-1]
     freq (   11) =       5.755023 [THz] =     191.966894 [cm-1]
     freq (   12) =       5.799789 [THz] =     193.460144 [cm-1]
     freq (   13) =      21.623422 [THz] =     721.279736 [cm-1]
     freq (   14) =      21.637084 [THz] =     721.735431 [cm-1]
     freq (   15) =      23.085763 [THz] =     770.058165 [cm-1]

[...]

     freq (  1 -  1) =        -30.6  [cm-1]   --> A_1  D_1  S_1   I+R
     freq (  2 -  2) =         14.5  [cm-1]   --> B_2  D_4  S_4   I+R
     freq (  3 -  3) =         47.6  [cm-1]   --> B_1  D_3  S_3   I+R
     freq (  4 -  4) =        105.2  [cm-1]   --> A_1  D_1  S_1   I+R
     freq (  5 -  5) =        105.3  [cm-1]   --> B_2  D_4  S_4   I+R
     freq (  6 -  6) =        106.7  [cm-1]   --> B_1  D_3  S_3   I+R
     freq (  7 -  7) =        147.9  [cm-1]   --> B_2  D_4  S_4   I+R
     freq (  8 -  8) =        150.1  [cm-1]   --> A_1  D_1  S_1   I+R
     freq (  9 -  9) =        161.4  [cm-1]   --> B_1  D_3  S_3   I+R
     freq ( 10 - 10) =        190.8  [cm-1]   --> A_1  D_1  S_1   I+R
     freq ( 11 - 11) =        192.0  [cm-1]   --> B_2  D_4  S_4   I+R
     freq ( 12 - 12) =        193.5  [cm-1]   --> B_1  D_3  S_3   I+R
     freq ( 13 - 13) =        721.3  [cm-1]   --> B_2  D_4  S_4   I+R
     freq ( 14 - 14) =        721.7  [cm-1]   --> B_1  D_3  S_3   I+R
     freq ( 15 - 15) =        770.1  [cm-1]   --> A_1  D_1  S_1   I+R

[...]

     bravais-lattice index     =            0
     lattice parameter (alat)  =       7.0055  a.u.
     unit-cell volume          =     343.7659 (a.u.)^3
     number of atoms/cell      =            5
     number of atomic types    =            2
     number of electrons       =        49.00
     number of Kohn-Sham states=           30
     kinetic-energy cutoff     =      30.0000  Ry
     charge density cutoff     =     120.0000  Ry
     Exchange-correlation      =  SLA  PW   PBX  PBC ( 1  4  3  4 0 0)

[...]

     atomic species   valence    mass     pseudopotential
        Cu            11.00    63.54600     Cu( 1.00)
        N              5.00    14.00700      N( 1.00)

     Starting magnetic structure
     atomic species   magnetization
        Cu           0.000
        N            0.000

      4 Sym. Ops. (no inversion) found

[...]

     site n.     atom                  positions (alat units)
         1           Cu  tau(   1) = (   0.0000000   0.0000000   0.0000000  )
         2           Cu  tau(   2) = (   0.5000000   0.4999378   0.0000000  )
         3           Cu  tau(   3) = (   0.0000000   0.4999378   0.4749170  )
         4           Cu  tau(   4) = (   0.5000000   0.0000000   0.4747944  )
         5           N   tau(   5) = (   0.0000000   0.4999378   0.9976365  )

     number of k points=    16  gaussian smearing, width (Ry)=  0.0200
                       cart. coord. in units 2pi/alat
        k(    1) = (   0.1250000   0.1250155   0.1250000), wk =   0.1250000
        k(    2) = (   0.1250000   0.1250155  -0.3750000), wk =   0.0000000
        k(    3) = (   0.1250000   0.1250155   0.3750000), wk =   0.1250000
        k(    4) = (   0.1250000   0.1250155  -0.1250000), wk =   0.0000000
        k(    5) = (   0.1250000   0.3750466   0.1250000), wk =   0.1250000
        k(    6) = (   0.1250000   0.3750466  -0.3750000), wk =   0.0000000
        k(    7) = (   0.1250000   0.3750466   0.3750000), wk =   0.1250000
        k(    8) = (   0.1250000   0.3750466  -0.1250000), wk =   0.0000000
        k(    9) = (   0.3750000   0.1250155   0.3750000), wk =   0.1250000
        k(   10) = (   0.3750000   0.1250155  -0.1250000), wk =   0.0000000
        k(   11) = (   0.3750000   0.3750466   0.3750000), wk =   0.1250000
        k(   12) = (   0.3750000   0.3750466  -0.1250000), wk =   0.0000000
        k(   13) = (   0.3750000  -0.1250155   0.1250000), wk =   0.1250000
        k(   14) = (   0.3750000  -0.1250155  -0.3750000), wk =   0.0000000
        k(   15) = (   0.3750000  -0.3750466   0.1250000), wk =   0.1250000
        k(   16) = (   0.3750000  -0.3750466  -0.3750000), wk =   0.0000000

[...]

     The potential is recalculated from file :
     ./tmp/_ph0/Cu2N.save/charge-density.dat

     Starting wfc are   40 atomic wfcs
     Checking if some PAW data can be deallocated...

     Band Structure Calculation
     Davidson diagonalization with overlap

     ethr =  2.04E-11,  avg # of iterations = 15.0

     End of band structure calculation

 ------ SPIN UP ------------

          k = 0.1250 0.1250 0.1250 (   952 PWs)   bands (ev):

    -4.1955   5.9831   7.0481   7.0852   7.4774   8.8259   8.8343   8.8808
     8.9309   9.1581  10.1191  10.2585  10.2664  10.4650  10.4763  11.0144
    11.2652  11.4306  11.4462  11.7338  11.7346  11.8173  12.0147  12.0212
    14.4776  17.2066  17.2250  17.4490  21.0727  21.0806

[...]

 ------ SPIN DOWN ----------

[...]

     the Fermi energy is    14.4066 ev

     Writing output data file Cu2N.save

[...]

     freq (  1 -  1) =         66.3  [cm-1]   --> B_2  D_4  S_4
     freq (  2 -  2) =         83.9  [cm-1]   --> B_1  D_3  S_3
     freq (  3 -  3) =        102.8  [cm-1]   --> B_2  D_4  S_4
     freq (  4 -  4) =        112.8  [cm-1]   --> B_1  D_3  S_3
     freq (  5 -  5) =        117.1  [cm-1]   --> A_1  D_1  S_1
     freq (  6 -  6) =        126.8  [cm-1]   --> B_2  D_4  S_4
     freq (  7 -  7) =        128.9  [cm-1]   --> A_1  D_1  S_1
     freq (  8 -  8) =        135.7  [cm-1]   --> B_1  D_3  S_3
     freq (  9 -  9) =        169.6  [cm-1]   --> A_1  D_1  S_1
     freq ( 10 - 10) =        174.3  [cm-1]   --> B_2  D_4  S_4
     freq ( 11 - 11) =        174.5  [cm-1]   --> B_1  D_3  S_3
     freq ( 12 - 12) =        315.7  [cm-1]   --> A_1  D_1  S_1
     freq ( 13 - 13) =        713.3  [cm-1]   --> A_1  D_1  S_1
     freq ( 14 - 14) =        717.4  [cm-1]   --> B_2  D_4  S_4
     freq ( 15 - 15) =        717.8  [cm-1]   --> B_1  D_3  S_3

[...]

          k =-0.3750 0.1250 0.1250 (   950 PWs)   bands (ev):

[...]

     Calculation of q =   -0.5000000  -0.5000622  -0.5000000

[...]

   Info: using nr1, nr2, nr3 values from input

     bravais-lattice index     =            0
     lattice parameter (alat)  =       7.0055  a.u.
     unit-cell volume          =     343.7659 (a.u.)^3
     number of atoms/cell      =            5
     number of atomic types    =            2
     number of electrons       =        49.00
     number of Kohn-Sham states=           30
     kinetic-energy cutoff     =      30.0000  Ry
     charge density cutoff     =     120.0000  Ry
     Exchange-correlation      =  SLA  PW   PBX  PBC ( 1  4  3  4 0 0)

[...]

     atomic species   valence    mass     pseudopotential
        Cu            11.00    63.54600     Cu( 1.00)
        N              5.00    14.00700      N( 1.00)

     Starting magnetic structure
     atomic species   magnetization
        Cu           0.000
        N            0.000

      4 Sym. Ops. (no inversion) found

[...]

     site n.     atom                  positions (alat units)
         1           Cu  tau(   1) = (   0.0000000   0.0000000   0.0000000  )
         2           Cu  tau(   2) = (   0.5000000   0.4999378   0.0000000  )
         3           Cu  tau(   3) = (   0.0000000   0.4999378   0.4749170  )
         4           Cu  tau(   4) = (   0.5000000   0.0000000   0.4747944  )
         5           N   tau(   5) = (   0.0000000   0.4999378   0.9976365  )

     number of k points=    16  gaussian smearing, width (Ry)=  0.0200
                       cart. coord. in units 2pi/alat
        k(    1) = (   0.1250000   0.1250155   0.1250000), wk =   0.1250000
        k(    2) = (  -0.3750000  -0.3750466  -0.3750000), wk =   0.0000000
        k(    3) = (   0.1250000   0.1250155   0.3750000), wk =   0.1250000
        k(    4) = (  -0.3750000  -0.3750466  -0.1250000), wk =   0.0000000
        k(    5) = (   0.1250000   0.3750466   0.1250000), wk =   0.1250000
        k(    6) = (  -0.3750000  -0.1250155  -0.3750000), wk =   0.0000000
        k(    7) = (   0.1250000   0.3750466   0.3750000), wk =   0.1250000
        k(    8) = (  -0.3750000  -0.1250155  -0.1250000), wk =   0.0000000
        k(    9) = (   0.3750000   0.1250155   0.3750000), wk =   0.1250000
        k(   10) = (  -0.1250000  -0.3750466  -0.1250000), wk =   0.0000000
        k(   11) = (   0.3750000   0.3750466   0.3750000), wk =   0.1250000
        k(   12) = (  -0.1250000  -0.1250155  -0.1250000), wk =   0.0000000
        k(   13) = (   0.3750000  -0.1250155   0.1250000), wk =   0.1250000
        k(   14) = (  -0.1250000  -0.6250777  -0.3750000), wk =   0.0000000
        k(   15) = (   0.3750000  -0.3750466   0.1250000), wk =   0.1250000
        k(   16) = (  -0.1250000  -0.8751088  -0.3750000), wk =   0.0000000

     Check: negative/imaginary core charge=   -0.000075    0.000000

     The potential is recalculated from file :
     ./tmp/_ph0/Cu2N.save/charge-density.dat

     Starting wfc are   40 atomic wfcs
     Checking if some PAW data can be deallocated...

     Band Structure Calculation
     Davidson diagonalization with overlap

     ethr =  2.04E-11,  avg # of iterations = 15.0

     End of band structure calculation

 ------ SPIN UP ------------

[...]

 ------ SPIN DOWN ----------

[...]

          k = 0.3750-0.3750 0.1250 (   953 PWs)   bands (ev):

[...]

          k =-0.1250-0.8751-0.3750 (   950 PWs)   bands (ev):

    -3.8342   5.0655   6.6509   6.6671   7.6551   8.7824   9.0655   9.3570
     9.3579   9.4099   9.8887  10.2089  10.2644  10.4719  10.5366  10.8111
    11.0988  11.3734  11.4472  11.5508  11.6323  11.7764  11.9530  12.2369
    15.0334  15.5318  17.2472  18.9154  20.4476  21.9166

     the Fermi energy is    14.4066 ev

     Writing output data file Cu2N.save

     bravais-lattice index     =            0
     lattice parameter (alat)  =       7.0055  a.u.
     unit-cell volume          =     343.7659 (a.u.)^3
     number of atoms/cell      =            5
     number of atomic types    =            2
     kinetic-energy cut-off    =      30.0000  Ry
     charge density cut-off    =     120.0000  Ry
     convergence threshold     =      1.0E-12
     beta                      =       0.7000
     number of iterations used =            4
     Exchange-correlation      =  SLA  PW   PBX  PBC ( 1  4  3  4 0 0)

     celldm(1)=    7.00550  celldm(2)=    0.00000  celldm(3)=    0.00000
     celldm(4)=    0.00000  celldm(5)=    0.00000  celldm(6)=    0.00000

     crystal axes: (cart. coord. in units of alat)
               a(1) = (  1.0000  0.0000  0.0000 )
               a(2) = (  0.0000  0.9999  0.0000 )
               a(3) = (  0.0000  0.0000  1.0000 )

     reciprocal axes: (cart. coord. in units 2 pi/alat)
               b(1) = (  1.0000  0.0000  0.0000 )
               b(2) = (  0.0000  1.0001  0.0000 )
               b(3) = (  0.0000  0.0000  1.0000 )

     Atoms inside the unit cell:

     Cartesian axes

     site n.  atom      mass           positions (alat units)
        1     Cu  63.5460   tau(    1) = (    0.00000    0.00000    0.00000  )
        2     Cu  63.5460   tau(    2) = (    0.50000    0.49994    0.00000  )
        3     Cu  63.5460   tau(    3) = (    0.00000    0.49994    0.47492  )
        4     Cu  63.5460   tau(    4) = (    0.50000    0.00000    0.47479  )
        5     N   14.0070   tau(    5) = (    0.00000    0.49994    0.99764  )

     Computing dynamical matrix for
                    q = (  -0.5000000  -0.5000622  -0.5000000 )

      5 Sym.Ops. (with q -> -q+G )

     G cutoff =  149.1761  (    514 G-vectors)     FFT grid: ( 25, 25, 25)

     number of k points=    32  gaussian smearing, width (Ry)=  0.0200

     PseudoPot. # 1 for Cu read from file:
     ../../pseudo/Cu.pbe-dn-kjpaw_psl.1.0.0.UPF
     MD5 check sum: d0575d8777d02cc05b6679c1e3a9a036
     Pseudo is Projector augmented-wave + core cor, Zval = 11.0
     Generated using "atomic" code by A. Dal Corso  v.6.3
     Shape of augmentation charge: PSQ
     Using radial grid of 1199 points,  6 beta functions with:
                l(1) =   0
                l(2) =   0
                l(3) =   1
                l(4) =   1
                l(5) =   2
                l(6) =   2
     Q(r) pseudized with 0 coefficients

     PseudoPot. # 2 for  N read from file:
     ../../pseudo/N.pbe-n-kjpaw_psl.1.0.0.UPF
     MD5 check sum: 57d39628416b425e94b4a4c0ec66cafa
     Pseudo is Projector augmented-wave + core cor, Zval =  5.0
     Generated using "atomic" code by A. Dal Corso  v.6.3
     Shape of augmentation charge: PSQ
     Using radial grid of 1085 points,  4 beta functions with:
                l(1) =   0
                l(2) =   0
                l(3) =   1
                l(4) =   1
     Q(r) pseudized with 0 coefficients

[...]

     Atomic displacements:
     There are  15 irreducible representations

[...]

     Representation    15      1 modes -B_2  D_4  S_4  To be done

     Alpha used in Ewald sum =   1.1000

[...]

     Representation # 15 mode #  15

     Self-consistent Calculation

[...]

      thresh= 2.377E-07 alpha_mix =  0.700 |ddv_scf|^2 =  3.977E-13

     End of self-consistent calculation

     Convergence has been achieved

     Number of q in the star =    1
     List of q in the star:
          1  -0.500000000  -0.500062172  -0.500000000

     Diagonalizing the dynamical matrix

     q = (   -0.500000000  -0.500062172  -0.500000000 )

     freq (    1) =       2.508858 [THz] =      83.686501 [cm-1]
     freq (    2) =       2.581188 [THz] =      86.099174 [cm-1]
     freq (    3) =       2.887266 [THz] =      96.308814 [cm-1]
     freq (    4) =       3.321313 [THz] =     110.787083 [cm-1]
     freq (    5) =       3.326616 [THz] =     110.963973 [cm-1]
     freq (    6) =       3.365345 [THz] =     112.255827 [cm-1]
     freq (    7) =       6.264541 [THz] =     208.962610 [cm-1]
     freq (    8) =       6.294538 [THz] =     209.963200 [cm-1]
     freq (    9) =       6.373571 [THz] =     212.599436 [cm-1]
     freq (   10) =       8.733164 [THz] =     291.306980 [cm-1]
     freq (   11) =       9.455835 [THz] =     315.412716 [cm-1]
     freq (   12) =      11.644776 [THz] =     388.427916 [cm-1]
     freq (   13) =      19.191061 [THz] =     640.144881 [cm-1]
     freq (   14) =      19.239900 [THz] =     641.773988 [cm-1]
     freq (   15) =      21.215898 [THz] =     707.686179 [cm-1]

     Mode symmetry, C_2v (mm2)  point group:

     freq (  1 -  1) =         83.7  [cm-1]   --> A_1  D_1  S_1
     freq (  2 -  2) =         86.1  [cm-1]   --> A_2  D_2  S_2
     freq (  3 -  3) =         96.3  [cm-1]   --> B_1  D_3  S_3
     freq (  4 -  4) =        110.8  [cm-1]   --> A_1  D_1  S_1
     freq (  5 -  5) =        111.0  [cm-1]   --> B_1  D_3  S_3
     freq (  6 -  6) =        112.3  [cm-1]   --> A_2  D_2  S_2
     freq (  7 -  7) =        209.0  [cm-1]   --> A_1  D_1  S_1
     freq (  8 -  8) =        210.0  [cm-1]   --> A_2  D_2  S_2
     freq (  9 -  9) =        212.6  [cm-1]   --> B_1  D_3  S_3
     freq ( 10 - 10) =        291.3  [cm-1]   --> B_2  D_4  S_4
     freq ( 11 - 11) =        315.4  [cm-1]   --> B_2  D_4  S_4
     freq ( 12 - 12) =        388.4  [cm-1]   --> B_2  D_4  S_4
     freq ( 13 - 13) =        640.1  [cm-1]   --> A_1  D_1  S_1
     freq ( 14 - 14) =        641.8  [cm-1]   --> A_2  D_2  S_2
     freq ( 15 - 15) =        707.7  [cm-1]   --> B_2  D_4  S_4

     General routines

     Parallel routines

     INITIALIZATION:

     DYNAMICAL MATRIX:

      General routines

   This run was terminated on:  17:29: 3   1Jul2020

   JOB DONE.