     Program PHONON v.6.0 (svn rev. 13079) starts on 22Apr2020 at 14:55:46

     Reading data from directory:
     ./tmp/Cu2N.save

   Info: using nr1, nr2, nr3 values from input

[...]

     IMPORTANT: XC functional enforced from input :
     Exchange-correlation      =  SLA  PW   PBX  PBC ( 1  4  3  4 0 0)
     Any further DFT definition will be discarded
     Please, verify this is what you really want

               file Cu.pbe-dn-kjpaw_psl.1.0.0.UPF: wavefunction(s)  4S 3D renormalized
               file N.pbe-n-kjpaw_psl.1.0.0.UPF: wavefunction(s)  2S renormalized

     Generating pointlists ...
     new r_m :   0.2062 (alat units)  1.4499 (a.u.) for type    1
     new r_m :   0.2062 (alat units)  1.4499 (a.u.) for type    2

     Check: negative/imaginary core charge=   -0.000075    0.000000

     Dynamical matrices for ( 2, 2, 2)  uniform grid of q-points
     (   6q-points):
       N         xq(1)         xq(2)         xq(3)
       1   0.000000000   0.000000000   0.000000000
       2   0.000000000   0.000000000  -0.500000000
       3   0.000000000  -0.500000000   0.000000000
       4   0.000000000  -0.500000000  -0.500000000
       5  -0.500000000   0.000000000  -0.500000000
       6  -0.500000000  -0.500000000  -0.500000000

     Calculation of q =    0.0000000   0.0000000   0.0000000

     bravais-lattice index     =            0
     lattice parameter (alat)  =       7.0298  a.u.
     unit-cell volume          =     347.3965 (a.u.)^3
     number of atoms/cell      =            5
     number of atomic types    =            2
     kinetic-energy cut-off    =      30.0000  Ry
     charge density cut-off    =     120.0000  Ry
     convergence threshold     =      1.0E-14
     beta                      =       0.7000
     number of iterations used =            4
     Exchange-correlation      =  SLA  PW   PBX  PBC ( 1  4  3  4 0 0)

     celldm(1)=    7.02978  celldm(2)=    0.00000  celldm(3)=    0.00000
     celldm(4)=    0.00000  celldm(5)=    0.00000  celldm(6)=    0.00000

     crystal axes: (cart. coord. in units of alat)
               a(1) = (  1.0000  0.0000  0.0000 )
               a(2) = (  0.0000  1.0000  0.0000 )
               a(3) = (  0.0000  0.0000  1.0000 )

     reciprocal axes: (cart. coord. in units 2 pi/alat)
               b(1) = (  1.0000  0.0000  0.0000 )
               b(2) = (  0.0000  1.0000  0.0000 )
               b(3) = (  0.0000  0.0000  1.0000 )

     Atoms inside the unit cell:

     Cartesian axes

     site n.  atom      mass           positions (alat units)
        1     Cu  63.5460   tau(    1) = (    0.00000    0.00000    0.00000  )
        2     Cu  63.5460   tau(    2) = (    0.50000    0.50000    0.00000  )
        3     Cu  63.5460   tau(    3) = (    0.00000    0.50000    0.50000  )
        4     Cu  63.5460   tau(    4) = (    0.50000    0.00000    0.50000  )
        5     N   14.0070   tau(    5) = (    0.00000    0.50000    1.00000  )

     Computing dynamical matrix for
                    q = (   0.0000000   0.0000000   0.0000000 )

     17 Sym.Ops. (with q -> -q+G )

     G cutoff =  150.2122  (    652 G-vectors)     FFT grid: ( 25, 25, 25)

     number of k points=    12  gaussian smearing, width (Ry)=  0.0200

     PseudoPot. # 1 for Cu read from file:
     ../../pseudo/Cu.pbe-dn-kjpaw_psl.1.0.0.UPF
     MD5 check sum: cfffd1f38ee05704b3e17f46f1730a6f
     Pseudo is Projector augmented-wave + core cor, Zval = 11.0
     Generated using "atomic" code by A. Dal Corso  v.6.3
     Shape of augmentation charge: PSQ
     Using radial grid of 1199 points,  6 beta functions with:
                l(1) =   0
                l(2) =   0
                l(3) =   1
                l(4) =   1
                l(5) =   2
                l(6) =   2
     Q(r) pseudized with 0 coefficients

     PseudoPot. # 2 for  N read from file:
     ../../pseudo/N.pbe-n-kjpaw_psl.1.0.0.UPF
     MD5 check sum: 14c48229446f9f2d411169a3abcbc3fa
     Pseudo is Projector augmented-wave + core cor, Zval =  5.0
     Generated using "atomic" code by A. Dal Corso  v.6.3
     Shape of augmentation charge: PSQ
     Using radial grid of 1085 points,  4 beta functions with:
                l(1) =   0
                l(2) =   0
                l(3) =   1
                l(4) =   1
     Q(r) pseudized with 0 coefficients

     Mode symmetry, D_4h(4/mmm) point group:

     Atomic displacements:
     There are  10 irreducible representations

     Representation     1      1 modes -A_2u X_4' M_4'  To be done

[...]

     Representation     6      2 modes -E_u  X_5' M_5'  To be done

[...]

     Alpha used in Ewald sum =   1.1000

     Representation #  1 mode #   1

     Self-consistent Calculation

     Pert. #  1: Fermi energy shift (Ry) =     0.0000E+00     0.0000E+00

      thresh= 1.000E-02 alpha_mix =  0.700 |ddv_scf|^2 =  3.978E-06

[...]

     End of self-consistent calculation

     Convergence has been achieved

[...]

     Representation #  6 modes #   6  7

[...]

     Pert. #  1: Fermi energy shift (Ry) =     0.0000E+00     0.0000E+00
     Pert. #  2: Fermi energy shift (Ry) =     0.0000E+00     0.0000E+00

[...]

     Number of q in the star =    1
     List of q in the star:
          1   0.000000000   0.000000000   0.000000000

     Diagonalizing the dynamical matrix

     q = (    0.000000000   0.000000000   0.000000000 )

     freq (    1) =      -0.974050 [THz] =     -32.490814 [cm-1]
     freq (    2) =       1.017529 [THz] =      33.941116 [cm-1]
     freq (    3) =       1.017529 [THz] =      33.941116 [cm-1]
     freq (    4) =       2.898410 [THz] =      96.680544 [cm-1]
     freq (    5) =       2.968133 [THz] =      99.006253 [cm-1]
     freq (    6) =       2.968133 [THz] =      99.006253 [cm-1]
     freq (    7) =       4.349127 [THz] =     145.071276 [cm-1]
     freq (    8) =       4.750435 [THz] =     158.457446 [cm-1]
     freq (    9) =       4.750435 [THz] =     158.457446 [cm-1]
     freq (   10) =       5.390784 [THz] =     179.817196 [cm-1]
     freq (   11) =       5.477837 [THz] =     182.720977 [cm-1]
     freq (   12) =       5.477837 [THz] =     182.720977 [cm-1]
     freq (   13) =      21.262239 [THz] =     709.231964 [cm-1]
     freq (   14) =      21.307521 [THz] =     710.742387 [cm-1]
     freq (   15) =      21.307521 [THz] =     710.742387 [cm-1]

[...]

     freq (  1 -  1) =        -32.5  [cm-1]   --> A_2u X_4' M_4'  I
     freq (  2 -  3) =         33.9  [cm-1]   --> E_u  X_5' M_5'  I
     freq (  4 -  4) =         96.7  [cm-1]   --> B_2u X_3' M_3'
     freq (  5 -  6) =         99.0  [cm-1]   --> E_u  X_5' M_5'  I
     freq (  7 -  7) =        145.1  [cm-1]   --> A_2u X_4' M_4'  I
     freq (  8 -  9) =        158.5  [cm-1]   --> E_u  X_5' M_5'  I
     freq ( 10 - 10) =        179.8  [cm-1]   --> A_2u X_4' M_4'  I
     freq ( 11 - 12) =        182.7  [cm-1]   --> E_u  X_5' M_5'  I
     freq ( 13 - 13) =        709.2  [cm-1]   --> A_2u X_4' M_4'  I
     freq ( 14 - 15) =        710.7  [cm-1]   --> E_u  X_5' M_5'  I

[...]

     bravais-lattice index     =            0
     lattice parameter (alat)  =       7.0298  a.u.
     unit-cell volume          =     347.3965 (a.u.)^3
     number of atoms/cell      =            5
     number of atomic types    =            2
     number of electrons       =        49.00
     number of Kohn-Sham states=           30
     kinetic-energy cutoff     =      30.0000  Ry
     charge density cutoff     =     120.0000  Ry
     Exchange-correlation      =  SLA  PW   PBX  PBC ( 1  4  3  4 0 0)

[...]

     atomic species   valence    mass     pseudopotential
        Cu            11.00    63.54600     Cu( 1.00)
        N              5.00    14.00700      N( 1.00)

     Starting magnetic structure
     atomic species   magnetization
        Cu           0.000
        N            0.000

     16 Sym. Ops., with inversion, found

[...]

     site n.     atom                  positions (alat units)
         1           Cu  tau(   1) = (   0.0000000   0.0000000   0.0000000  )
         2           Cu  tau(   2) = (   0.5000000   0.5000000   0.0000000  )
         3           Cu  tau(   3) = (   0.0000000   0.5000000   0.5000000  )
         4           Cu  tau(   4) = (   0.5000000   0.0000000   0.5000000  )
         5           N   tau(   5) = (   0.0000000   0.5000000   1.0000000  )

     number of k points=    16  gaussian smearing, width (Ry)=  0.0200
                       cart. coord. in units 2pi/alat
        k(    1) = (   0.1250000   0.1250000   0.1250000), wk =   0.1250000
        k(    2) = (   0.1250000   0.1250000  -0.3750000), wk =   0.0000000
        k(    3) = (   0.1250000   0.1250000   0.3750000), wk =   0.1250000
        k(    4) = (   0.1250000   0.1250000  -0.1250000), wk =   0.0000000
        k(    5) = (   0.1250000   0.3750000   0.3750000), wk =   0.1250000
        k(    6) = (   0.1250000   0.3750000  -0.1250000), wk =   0.0000000
        k(    7) = (   0.3750000   0.3750000   0.3750000), wk =   0.1250000
        k(    8) = (   0.3750000   0.3750000  -0.1250000), wk =   0.0000000
        k(    9) = (   0.3750000  -0.1250000   0.1250000), wk =   0.1250000
        k(   10) = (   0.3750000  -0.1250000  -0.3750000), wk =   0.0000000
        k(   11) = (   0.1250000   0.3750000   0.1250000), wk =   0.1250000
        k(   12) = (   0.1250000   0.3750000  -0.3750000), wk =   0.0000000
        k(   13) = (   0.3750000  -0.3750000   0.1250000), wk =   0.1250000
        k(   14) = (   0.3750000  -0.3750000  -0.3750000), wk =   0.0000000
        k(   15) = (   0.3750000   0.1250000   0.3750000), wk =   0.1250000
        k(   16) = (   0.3750000   0.1250000  -0.1250000), wk =   0.0000000

[...]

     The potential is recalculated from file :
     ./tmp/_ph0/Cu2N.save/charge-density.dat

     Starting wfc are   40 atomic wfcs
     Checking if some PAW data can be deallocated...

     Band Structure Calculation
     Davidson diagonalization with overlap

     ethr =  2.04E-11,  avg # of iterations = 14.5

     End of band structure calculation

 ------ SPIN UP ------------

          k = 0.1250 0.1250 0.1250 (   964 PWs)   bands (ev):

    -4.2578   5.8843   6.9892   6.9893   7.3924   8.7186   8.7189   8.7789
     8.7792   9.0048   9.9720  10.1116  10.1118  10.3221  10.3229  10.8581
    11.1087  11.2720  11.2724  11.5576  11.5579  11.6281  11.8388  11.8389
    14.2494  17.0029  17.0032  17.1920  20.8226  20.8226

[...]

 ------ SPIN DOWN ----------

[...]

     the Fermi energy is    14.1935 ev

     Writing output data file Cu2N.save

[...]

     Mode symmetry, D_2h (mmm)  point group:

[...]

     Representation     1      1 modes -A_g  To be done

[...]

     Representation     3      1 modes -B_2g  To be done

[...]

     Representation     7      1 modes -B_1u  To be done

[...]

     freq (  1 -  1) =         62.0  [cm-1]   --> B_2u
     freq (  2 -  2) =         91.5  [cm-1]   --> B_3u
     freq (  3 -  3) =        104.1  [cm-1]   --> B_2g
     freq (  4 -  4) =        104.5  [cm-1]   --> B_3g
     freq (  5 -  5) =        110.4  [cm-1]   --> B_1u
     freq (  6 -  6) =        123.0  [cm-1]   --> B_2u
     freq (  7 -  7) =        136.4  [cm-1]   --> B_3u
     freq (  8 -  8) =        138.8  [cm-1]   --> B_1u
     freq (  9 -  9) =        143.6  [cm-1]   --> A_g
     freq ( 10 - 10) =        164.8  [cm-1]   --> B_2g
     freq ( 11 - 11) =        165.1  [cm-1]   --> B_3g
     freq ( 12 - 12) =        340.2  [cm-1]   --> A_g
     freq ( 13 - 13) =        640.0  [cm-1]   --> B_1u
     freq ( 14 - 14) =        705.7  [cm-1]   --> B_2u
     freq ( 15 - 15) =        706.9  [cm-1]   --> B_3u

[...]

     Representation     1      1 modes -A_1g X_1  M_1  To be done

[...]

     Representation     4      2 modes -E_g  X_5  M_5  To be done

[...]

     freq (  1 -  2) =         92.9  [cm-1]   --> E_g  X_5  M_5
     freq (  3 -  4) =        103.3  [cm-1]   --> E_u  X_5' M_5'
     freq (  5 -  5) =        109.7  [cm-1]   --> B_1g X_2  M_2
     freq (  6 -  6) =        137.3  [cm-1]   --> A_1g X_1  M_1
     freq (  7 -  8) =        137.8  [cm-1]   --> E_g  X_5  M_5
     freq (  9 -  9) =        145.2  [cm-1]   --> A_2u X_4' M_4'
     freq ( 10 - 11) =        164.3  [cm-1]   --> E_u  X_5' M_5'
     freq ( 12 - 12) =        334.2  [cm-1]   --> A_2u X_4' M_4'
     freq ( 13 - 13) =        637.3  [cm-1]   --> A_1g X_1  M_1
     freq ( 14 - 15) =        706.9  [cm-1]   --> E_g  X_5  M_5

[...]

     Representation     3      1 modes -A_g  To be done

[...]

     Representation     9      1 modes -B_3g  To be done

     Representation    10      1 modes -A_u  To be done

[...]

     Representation    15      1 modes -B_3u  To be done

[...]

     Mode symmetry, D_2h (mmm)  point group:

     freq (  1 -  1) =         76.1  [cm-1]   --> B_1u
     freq (  2 -  2) =         93.7  [cm-1]   --> A_g
     freq (  3 -  3) =         95.9  [cm-1]   --> B_3g
     freq (  4 -  4) =        123.3  [cm-1]   --> B_1g
     freq (  5 -  5) =        126.2  [cm-1]   --> B_3u
     freq (  6 -  6) =        127.7  [cm-1]   --> A_u
     freq (  7 -  7) =        140.2  [cm-1]   --> B_2g
     freq (  8 -  8) =        164.2  [cm-1]   --> A_g
     freq (  9 -  9) =        166.0  [cm-1]   --> B_3g
     freq ( 10 - 10) =        180.8  [cm-1]   --> B_1u
     freq ( 11 - 11) =        307.5  [cm-1]   --> B_2u
     freq ( 12 - 12) =        363.0  [cm-1]   --> B_2u
     freq ( 13 - 13) =        620.0  [cm-1]   --> A_g
     freq ( 14 - 14) =        622.8  [cm-1]   --> B_3g
     freq ( 15 - 15) =        710.1  [cm-1]   --> B_1g

[...]

          k =-0.3750 0.1250-0.3750 (   969 PWs)   bands (ev):

[...]

     freq (  1 -  1) =         77.7  [cm-1]   --> A_2g X_4  M_4
     freq (  2 -  2) =         84.8  [cm-1]   --> A_2u X_4' M_4'
     freq (  3 -  4) =         94.0  [cm-1]   --> E_u  X_5' M_5'
     freq (  5 -  6) =        126.1  [cm-1]   --> E_g  X_5  M_5
     freq (  7 -  7) =        142.1  [cm-1]   --> B_1u X_2' M_2'
     freq (  8 -  9) =        164.6  [cm-1]   --> E_u  X_5' M_5'
     freq ( 10 - 10) =        181.5  [cm-1]   --> B_2g X_3  M_3
     freq ( 11 - 11) =        311.1  [cm-1]   --> B_1g X_2  M_2
     freq ( 12 - 12) =        365.6  [cm-1]   --> A_1g X_1  M_1
     freq ( 13 - 14) =        622.8  [cm-1]   --> E_u  X_5' M_5'
     freq ( 15 - 15) =        708.9  [cm-1]   --> A_2u X_4' M_4'

     Calculation of q =   -0.5000000  -0.5000000  -0.5000000

[...]

   Info: using nr1, nr2, nr3 values from input

     bravais-lattice index     =            0
     lattice parameter (alat)  =       7.0298  a.u.
     unit-cell volume          =     347.3965 (a.u.)^3
     number of atoms/cell      =            5
     number of atomic types    =            2
     number of electrons       =        49.00
     number of Kohn-Sham states=           30
     kinetic-energy cutoff     =      30.0000  Ry
     charge density cutoff     =     120.0000  Ry
     Exchange-correlation      =  SLA  PW   PBX  PBC ( 1  4  3  4 0 0)

[...]

     atomic species   valence    mass     pseudopotential
        Cu            11.00    63.54600     Cu( 1.00)
        N              5.00    14.00700      N( 1.00)

     Starting magnetic structure
     atomic species   magnetization
        Cu           0.000
        N            0.000

     16 Sym. Ops., with inversion, found

[...]

     site n.     atom                  positions (alat units)
         1           Cu  tau(   1) = (   0.0000000   0.0000000   0.0000000  )
         2           Cu  tau(   2) = (   0.5000000   0.5000000   0.0000000  )
         3           Cu  tau(   3) = (   0.0000000   0.5000000   0.5000000  )
         4           Cu  tau(   4) = (   0.5000000   0.0000000   0.5000000  )
         5           N   tau(   5) = (   0.0000000   0.5000000   1.0000000  )

     number of k points=    12  gaussian smearing, width (Ry)=  0.0200
                       cart. coord. in units 2pi/alat
        k(    1) = (   0.1250000   0.1250000   0.1250000), wk =   0.1250000
        k(    2) = (  -0.3750000  -0.3750000  -0.3750000), wk =   0.0000000
        k(    3) = (   0.1250000   0.1250000   0.3750000), wk =   0.2500000
        k(    4) = (  -0.3750000  -0.3750000  -0.1250000), wk =   0.0000000
        k(    5) = (   0.1250000   0.3750000   0.3750000), wk =   0.2500000
        k(    6) = (  -0.3750000  -0.1250000  -0.1250000), wk =   0.0000000
        k(    7) = (   0.3750000   0.3750000   0.3750000), wk =   0.1250000
        k(    8) = (  -0.1250000  -0.1250000  -0.1250000), wk =   0.0000000
        k(    9) = (   0.1250000   0.3750000   0.1250000), wk =   0.1250000
        k(   10) = (  -0.3750000  -0.1250000  -0.3750000), wk =   0.0000000
        k(   11) = (   0.3750000   0.1250000   0.3750000), wk =   0.1250000
        k(   12) = (  -0.1250000  -0.3750000  -0.1250000), wk =   0.0000000

     Check: negative/imaginary core charge=   -0.000075    0.000000

     The potential is recalculated from file :
     ./tmp/_ph0/Cu2N.save/charge-density.dat

     Starting wfc are   40 atomic wfcs
     Checking if some PAW data can be deallocated...

     Band Structure Calculation
     Davidson diagonalization with overlap

     ethr =  2.04E-11,  avg # of iterations = 14.3

     End of band structure calculation

 ------ SPIN UP ------------

[...]

 ------ SPIN DOWN ----------

[...]

          k = 0.3750 0.1250 0.3750 (   969 PWs)   bands (ev):

[...]

          k =-0.1250-0.3750-0.1250 (   954 PWs)   bands (ev):

    -3.9002   4.9551   6.5875   6.6042   7.5693   8.6601   8.9621   9.2225
     9.2480   9.2734   9.7447  10.0567  10.1242  10.3326  10.3775  10.6481
    10.9326  11.2030  11.2749  11.3812  11.4685  11.5931  11.7755  12.0524
    14.8391  15.2655  17.0262  18.6902  20.1870  21.6675

     the Fermi energy is    14.1935 ev

     Writing output data file Cu2N.save

     bravais-lattice index     =            0
     lattice parameter (alat)  =       7.0298  a.u.
     unit-cell volume          =     347.3965 (a.u.)^3
     number of atoms/cell      =            5
     number of atomic types    =            2
     kinetic-energy cut-off    =      30.0000  Ry
     charge density cut-off    =     120.0000  Ry
     convergence threshold     =      1.0E-14
     beta                      =       0.7000
     number of iterations used =            4
     Exchange-correlation      =  SLA  PW   PBX  PBC ( 1  4  3  4 0 0)

     celldm(1)=    7.02978  celldm(2)=    0.00000  celldm(3)=    0.00000
     celldm(4)=    0.00000  celldm(5)=    0.00000  celldm(6)=    0.00000

     crystal axes: (cart. coord. in units of alat)
               a(1) = (  1.0000  0.0000  0.0000 )
               a(2) = (  0.0000  1.0000  0.0000 )
               a(3) = (  0.0000  0.0000  1.0000 )

     reciprocal axes: (cart. coord. in units 2 pi/alat)
               b(1) = (  1.0000  0.0000  0.0000 )
               b(2) = (  0.0000  1.0000  0.0000 )
               b(3) = (  0.0000  0.0000  1.0000 )

     Atoms inside the unit cell:

     Cartesian axes

     site n.  atom      mass           positions (alat units)
        1     Cu  63.5460   tau(    1) = (    0.00000    0.00000    0.00000  )
        2     Cu  63.5460   tau(    2) = (    0.50000    0.50000    0.00000  )
        3     Cu  63.5460   tau(    3) = (    0.00000    0.50000    0.50000  )
        4     Cu  63.5460   tau(    4) = (    0.50000    0.00000    0.50000  )
        5     N   14.0070   tau(    5) = (    0.00000    0.50000    1.00000  )

     Computing dynamical matrix for
                    q = (  -0.5000000  -0.5000000  -0.5000000 )

     17 Sym.Ops. (with q -> -q+G )

     G cutoff =  150.2122  (    652 G-vectors)     FFT grid: ( 25, 25, 25)

     number of k points=    24  gaussian smearing, width (Ry)=  0.0200

     PseudoPot. # 1 for Cu read from file:
     ../../pseudo/Cu.pbe-dn-kjpaw_psl.1.0.0.UPF
     MD5 check sum: cfffd1f38ee05704b3e17f46f1730a6f
     Pseudo is Projector augmented-wave + core cor, Zval = 11.0
     Generated using "atomic" code by A. Dal Corso  v.6.3
     Shape of augmentation charge: PSQ
     Using radial grid of 1199 points,  6 beta functions with:
                l(1) =   0
                l(2) =   0
                l(3) =   1
                l(4) =   1
                l(5) =   2
                l(6) =   2
     Q(r) pseudized with 0 coefficients

     PseudoPot. # 2 for  N read from file:
     ../../pseudo/N.pbe-n-kjpaw_psl.1.0.0.UPF
     MD5 check sum: 14c48229446f9f2d411169a3abcbc3fa
     Pseudo is Projector augmented-wave + core cor, Zval =  5.0
     Generated using "atomic" code by A. Dal Corso  v.6.3
     Shape of augmentation charge: PSQ
     Using radial grid of 1085 points,  4 beta functions with:
                l(1) =   0
                l(2) =   0
                l(3) =   1
                l(4) =   1
     Q(r) pseudized with 0 coefficients

[...]

     Atomic displacements:
     There are  11 irreducible representations

     Representation     1      1 modes -A_1g X_1  M_1  To be done

     Representation     2      2 modes -E_g  X_5  M_5  To be done

[...]

     Representation     8      1 modes -B_2u X_3' M_3'  To be done

[...]

     Representation    11      2 modes -E_u  X_5' M_5'  To be done

     Alpha used in Ewald sum =   1.1000

[...]

     Representation #  8 mode #   9

[...]

     Representation # 11 modes #  14 15

     Self-consistent Calculation

[...]

      thresh= 1.131E-07 alpha_mix =  0.700 |ddv_scf|^2 =  3.885E-15

     End of self-consistent calculation

     Convergence has been achieved

     Number of q in the star =    1
     List of q in the star:
          1  -0.500000000  -0.500000000  -0.500000000

     Diagonalizing the dynamical matrix

     q = (   -0.500000000  -0.500000000  -0.500000000 )

     freq (    1) =       2.636135 [THz] =      87.931991 [cm-1]
     freq (    2) =       2.638630 [THz] =      88.015218 [cm-1]
     freq (    3) =       2.638630 [THz] =      88.015218 [cm-1]
     freq (    4) =       3.270313 [THz] =     109.085901 [cm-1]
     freq (    5) =       3.271588 [THz] =     109.128414 [cm-1]
     freq (    6) =       3.271588 [THz] =     109.128414 [cm-1]
     freq (    7) =       5.959376 [THz] =     198.783385 [cm-1]
     freq (    8) =       5.962683 [THz] =     198.893690 [cm-1]
     freq (    9) =       5.962683 [THz] =     198.893690 [cm-1]
     freq (   10) =       9.205184 [THz] =     307.051894 [cm-1]
     freq (   11) =       9.346856 [THz] =     311.777562 [cm-1]
     freq (   12) =      11.624685 [THz] =     387.757755 [cm-1]
     freq (   13) =      18.898803 [THz] =     630.396226 [cm-1]
     freq (   14) =      18.983337 [THz] =     633.215973 [cm-1]
     freq (   15) =      18.983337 [THz] =     633.215973 [cm-1]

     Mode symmetry, D_4h(4/mmm) point group:

     freq (  1 -  1) =         87.9  [cm-1]   --> A_1u X_1' M_1'
     freq (  2 -  3) =         88.0  [cm-1]   --> E_u  X_5' M_5'
     freq (  4 -  4) =        109.1  [cm-1]   --> B_1u X_2' M_2'
     freq (  5 -  6) =        109.1  [cm-1]   --> E_u  X_5' M_5'
     freq (  7 -  7) =        198.8  [cm-1]   --> B_1u X_2' M_2'
     freq (  8 -  9) =        198.9  [cm-1]   --> E_u  X_5' M_5'
     freq ( 10 - 10) =        307.1  [cm-1]   --> A_2u X_4' M_4'
     freq ( 11 - 11) =        311.8  [cm-1]   --> B_2u X_3' M_3'
     freq ( 12 - 12) =        387.8  [cm-1]   --> A_2u X_4' M_4'
     freq ( 13 - 13) =        630.4  [cm-1]   --> A_1g X_1  M_1
     freq ( 14 - 15) =        633.2  [cm-1]   --> E_g  X_5  M_5

     General routines

     Parallel routines

     INITIALIZATION:

     DYNAMICAL MATRIX:

      General routines

   This run was terminated on:  17:24: 5  22Apr2020

   JOB DONE.