     Program PWSCF v.6.0 (svn rev. 13079) starts on  1Jul2020 at 15:20:47

     Current dimensions of program PWSCF are:
     Max number of different atomic species (ntypx) = 10
     Max number of k-points (npk) =  40000
     Max angular momentum in pseudopotentials (lmaxx) =  3
               file Cu.pbe-dn-kjpaw_psl.1.0.0.UPF: wavefunction(s)  4S 3D renormalized
               file N.pbe-n-kjpaw_psl.1.0.0.UPF: wavefunction(s)  2S renormalized

     Subspace diagonalization in iterative solution of the eigenvalue problem:
     one sub-group per band group will be used

     bravais-lattice index     =            0
     lattice parameter (alat)  =       7.0055  a.u.
     unit-cell volume          =     343.7659 (a.u.)^3
     number of atoms/cell      =            5
     number of atomic types    =            2
     number of electrons       =        49.00
     number of Kohn-Sham states=           30
     kinetic-energy cutoff     =      30.0000  Ry
     charge density cutoff     =     120.0000  Ry
     convergence threshold     =      1.0E-10
     mixing beta               =       0.7000
     number of iterations used =            8  plain     mixing
     Exchange-correlation      =  SLA  PW   PBX  PBC ( 1  4  3  4 0 0)

     celldm(1)=   7.005497  celldm(2)=   0.000000  celldm(3)=   0.000000
     celldm(4)=   0.000000  celldm(5)=   0.000000  celldm(6)=   0.000000

     crystal axes: (cart. coord. in units of alat)
               a(1) = (   1.000000   0.000000   0.000000 )
               a(2) = (   0.000000   0.999876   0.000000 )
               a(3) = (   0.000000   0.000000   1.000000 )

     reciprocal axes: (cart. coord. in units 2 pi/alat)
               b(1) = (  1.000000  0.000000  0.000000 )
               b(2) = (  0.000000  1.000124  0.000000 )
               b(3) = (  0.000000  0.000000  1.000000 )

     PseudoPot. # 1 for Cu read from file:
     ../../pseudo/Cu.pbe-dn-kjpaw_psl.1.0.0.UPF
     MD5 check sum: d0575d8777d02cc05b6679c1e3a9a036
     Pseudo is Projector augmented-wave + core cor, Zval = 11.0
     Generated using "atomic" code by A. Dal Corso  v.6.3
     Shape of augmentation charge: PSQ
     Using radial grid of 1199 points,  6 beta functions with:
                l(1) =   0
                l(2) =   0
                l(3) =   1
                l(4) =   1
                l(5) =   2
                l(6) =   2
     Q(r) pseudized with 0 coefficients

     PseudoPot. # 2 for  N read from file:
     ../../pseudo/N.pbe-n-kjpaw_psl.1.0.0.UPF
     MD5 check sum: 57d39628416b425e94b4a4c0ec66cafa
     Pseudo is Projector augmented-wave + core cor, Zval =  5.0
     Generated using "atomic" code by A. Dal Corso  v.6.3
     Shape of augmentation charge: PSQ
     Using radial grid of 1085 points,  4 beta functions with:
                l(1) =   0
                l(2) =   0
                l(3) =   1
                l(4) =   1
     Q(r) pseudized with 0 coefficients

     atomic species   valence    mass     pseudopotential
        Cu            11.00    63.54600     Cu( 1.00)
        N              5.00    14.00700      N( 1.00)

     Starting magnetic structure
     atomic species   magnetization
        Cu           0.000
        N            0.000

      4 Sym. Ops. (no inversion) found

   Cartesian axes

     site n.     atom                  positions (alat units)
         1           Cu  tau(   1) = (   0.0000000   0.0000000   0.0000000  )
         2           Cu  tau(   2) = (   0.5000000   0.4999378   0.0000000  )
         3           Cu  tau(   3) = (   0.0000000   0.4999378   0.4749170  )
         4           Cu  tau(   4) = (   0.5000000   0.0000000   0.4747944  )
         5           N   tau(   5) = (   0.0000000   0.4999378   0.9976365  )

     number of k points=     8  gaussian smearing, width (Ry)=  0.0200
                       cart. coord. in units 2pi/alat
        k(    1) = (   0.1250000   0.1250155   0.1250000), wk =   0.1250000
        k(    2) = (   0.1250000   0.1250155   0.3750000), wk =   0.1250000
        k(    3) = (   0.1250000   0.3750466   0.1250000), wk =   0.1250000
        k(    4) = (   0.1250000   0.3750466   0.3750000), wk =   0.1250000
        k(    5) = (   0.3750000   0.1250155   0.3750000), wk =   0.1250000
        k(    6) = (   0.3750000   0.3750466   0.3750000), wk =   0.1250000
        k(    7) = (   0.3750000  -0.1250155   0.1250000), wk =   0.1250000
        k(    8) = (   0.3750000  -0.3750466   0.1250000), wk =   0.1250000

     Check: negative/imaginary core charge=   -0.000075    0.000000

     Initial potential from superposition of free atoms

     starting charge   48.99908, renormalised to   49.00000
     Starting wfc are   40 randomized atomic wfcs
     Checking if some PAW data can be deallocated...

     Self-consistent Calculation

     iteration #  1     ecut=    30.00 Ry     beta=0.70
     Davidson diagonalization with overlap
     ethr =  1.00E-02,  avg # of iterations =  2.6

     total energy              =    -879.87042677 Ry
     Harris-Foulkes estimate   =    -880.52288840 Ry
     estimated scf accuracy    <       0.79308988 Ry

     total magnetization       =     0.00 Bohr mag/cell
     absolute magnetization    =     0.01 Bohr mag/cell

[...]

     total energy              =    -880.35593544 Ry
     Harris-Foulkes estimate   =    -880.35593544 Ry
     estimated scf accuracy    <          1.8E-10 Ry

[...]

     iteration # 15     ecut=    30.00 Ry     beta=0.70
     Davidson diagonalization with overlap
     ethr =  3.60E-13,  avg # of iterations =  2.0

     Magnetic moment per site:
     atom:    1    charge:    8.1297    magn:    0.0000    constr:    0.0000
     atom:    2    charge:    8.1376    magn:    0.0000    constr:    0.0000
     atom:    3    charge:    8.1390    magn:    0.0000    constr:    0.0000
     atom:    4    charge:    8.1656    magn:    0.0000    constr:    0.0000
     atom:    5    charge:    3.8020    magn:    0.0000    constr:    0.0000

     End of self-consistent calculation

 ------ SPIN UP ------------

          k = 0.1250 0.1250 0.1250 (   952 PWs)   bands (ev):

    -4.1955   5.9831   7.0481   7.0852   7.4774   8.8259   8.8343   8.8808
     8.9309   9.1581  10.1191  10.2585  10.2664  10.4650  10.4763  11.0144
    11.2652  11.4306  11.4462  11.7338  11.7346  11.8173  12.0147  12.0212
    14.4776  17.2066  17.2250  17.4490  21.0727  21.0806

[...]

 ------ SPIN DOWN ----------

[...]

          k = 0.3750-0.3750 0.1250 (   953 PWs)   bands (ev):

    -3.4689   5.0786   5.1217   6.4611   8.2095   9.1775   9.2083   9.5113
     9.5788   9.6630   9.8792   9.9731  10.0105  10.4025  10.5018  10.6630
    10.9490  11.4136  11.4399  11.5278  11.6139  11.7310  12.0593  12.7455
    13.8289  16.2892  16.7814  18.6817  20.1469  21.8924

     the Fermi energy is    14.4066 ev

!    total energy              =    -880.35593544 Ry
     Harris-Foulkes estimate   =    -880.35593544 Ry
     estimated scf accuracy    <          5.0E-12 Ry

     total all-electron energy =    -13349.173798 Ry

     The total energy is the sum of the following terms:

     one-electron contribution =    -112.88230478 Ry
     hartree contribution      =     127.84811536 Ry
     xc contribution           =    -184.46978469 Ry
     ewald contribution        =    -343.48501919 Ry
     one-center paw contrib.   =    -367.36271247 Ry
     smearing contrib. (-TS)   =      -0.00422967 Ry

     total magnetization       =     0.00 Bohr mag/cell
     absolute magnetization    =     0.00 Bohr mag/cell

     convergence has been achieved in  15 iterations

     Writing output data file Cu2N.save

     General routines

     Parallel routines

   This run was terminated on:  15:21:20   1Jul2020

   JOB DONE.