     Program PWSCF v.6.0 (svn rev. 13079) starts on 22Apr2020 at 14:53:11

     Current dimensions of program PWSCF are:
     Max number of different atomic species (ntypx) = 10
     Max number of k-points (npk) =  40000
     Max angular momentum in pseudopotentials (lmaxx) =  3
               file Cu.pbe-dn-kjpaw_psl.1.0.0.UPF: wavefunction(s)  4S 3D renormalized
               file N.pbe-n-kjpaw_psl.1.0.0.UPF: wavefunction(s)  2S renormalized

     Subspace diagonalization in iterative solution of the eigenvalue problem:
     one sub-group per band group will be used

     bravais-lattice index     =            0
     lattice parameter (alat)  =       7.0298  a.u.
     unit-cell volume          =     347.3965 (a.u.)^3
     number of atoms/cell      =            5
     number of atomic types    =            2
     number of electrons       =        49.00
     number of Kohn-Sham states=           30
     kinetic-energy cutoff     =      30.0000  Ry
     charge density cutoff     =     120.0000  Ry
     convergence threshold     =      1.0E-10
     mixing beta               =       0.7000
     number of iterations used =            8  plain     mixing
     Exchange-correlation      =  SLA  PW   PBX  PBC ( 1  4  3  4 0 0)

     celldm(1)=   7.029781  celldm(2)=   0.000000  celldm(3)=   0.000000
     celldm(4)=   0.000000  celldm(5)=   0.000000  celldm(6)=   0.000000

     crystal axes: (cart. coord. in units of alat)
               a(1) = (   1.000000   0.000000   0.000000 )
               a(2) = (   0.000000   1.000000   0.000000 )
               a(3) = (   0.000000   0.000000   1.000000 )

     reciprocal axes: (cart. coord. in units 2 pi/alat)
               b(1) = (  1.000000  0.000000  0.000000 )
               b(2) = (  0.000000  1.000000  0.000000 )
               b(3) = (  0.000000  0.000000  1.000000 )

     PseudoPot. # 1 for Cu read from file:
     ../../pseudo/Cu.pbe-dn-kjpaw_psl.1.0.0.UPF
     MD5 check sum: cfffd1f38ee05704b3e17f46f1730a6f
     Pseudo is Projector augmented-wave + core cor, Zval = 11.0
     Generated using "atomic" code by A. Dal Corso  v.6.3
     Shape of augmentation charge: PSQ
     Using radial grid of 1199 points,  6 beta functions with:
                l(1) =   0
                l(2) =   0
                l(3) =   1
                l(4) =   1
                l(5) =   2
                l(6) =   2
     Q(r) pseudized with 0 coefficients

     PseudoPot. # 2 for  N read from file:
     ../../pseudo/N.pbe-n-kjpaw_psl.1.0.0.UPF
     MD5 check sum: 14c48229446f9f2d411169a3abcbc3fa
     Pseudo is Projector augmented-wave + core cor, Zval =  5.0
     Generated using "atomic" code by A. Dal Corso  v.6.3
     Shape of augmentation charge: PSQ
     Using radial grid of 1085 points,  4 beta functions with:
                l(1) =   0
                l(2) =   0
                l(3) =   1
                l(4) =   1
     Q(r) pseudized with 0 coefficients

     atomic species   valence    mass     pseudopotential
        Cu            11.00    63.54600     Cu( 1.00)
        N              5.00    14.00700      N( 1.00)

     Starting magnetic structure
     atomic species   magnetization
        Cu           0.000
        N            0.000

     16 Sym. Ops., with inversion, found
          (note: 32 additional sym.ops. were found but ignored
           their fractional translations are incommensurate with FFT grid)

   Cartesian axes

     site n.     atom                  positions (alat units)
         1           Cu  tau(   1) = (   0.0000000   0.0000000   0.0000000  )
         2           Cu  tau(   2) = (   0.5000000   0.5000000   0.0000000  )
         3           Cu  tau(   3) = (   0.0000000   0.5000000   0.5000000  )
         4           Cu  tau(   4) = (   0.5000000   0.0000000   0.5000000  )
         5           N   tau(   5) = (   0.0000000   0.5000000   1.0000000  )

     number of k points=     6  gaussian smearing, width (Ry)=  0.0200
                       cart. coord. in units 2pi/alat
        k(    1) = (   0.1250000   0.1250000   0.1250000), wk =   0.1250000
        k(    2) = (   0.1250000   0.1250000   0.3750000), wk =   0.2500000
        k(    3) = (   0.1250000   0.3750000   0.3750000), wk =   0.2500000
        k(    4) = (   0.3750000   0.3750000   0.3750000), wk =   0.1250000
        k(    5) = (   0.1250000   0.3750000   0.1250000), wk =   0.1250000
        k(    6) = (   0.3750000   0.1250000   0.3750000), wk =   0.1250000

     Check: negative/imaginary core charge=   -0.000075    0.000000

     Initial potential from superposition of free atoms

     starting charge   48.99908, renormalised to   49.00000
     Starting wfc are   40 randomized atomic wfcs
     Checking if some PAW data can be deallocated...

     Self-consistent Calculation

     iteration #  1     ecut=    30.00 Ry     beta=0.70
     Davidson diagonalization with overlap
     ethr =  1.00E-02,  avg # of iterations =  2.7

     total energy              =    -879.89309368 Ry
     Harris-Foulkes estimate   =    -880.53398874 Ry
     estimated scf accuracy    <       0.77897720 Ry

     total magnetization       =     0.00 Bohr mag/cell
     absolute magnetization    =     0.01 Bohr mag/cell

[...]

     total energy              =    -880.37141944 Ry
     Harris-Foulkes estimate   =    -880.37141944 Ry
     estimated scf accuracy    <          1.2E-09 Ry

[...]

     iteration # 13     ecut=    30.00 Ry     beta=0.70
     Davidson diagonalization with overlap
     ethr =  2.38E-12,  avg # of iterations =  1.9

     Magnetic moment per site:
     atom:    1    charge:    8.3786    magn:    0.0000    constr:    0.0000
     atom:    2    charge:    8.3731    magn:    0.0000    constr:    0.0000
     atom:    3    charge:    8.3731    magn:    0.0000    constr:    0.0000
     atom:    4    charge:    8.3958    magn:    0.0000    constr:    0.0000
     atom:    5    charge:    4.0598    magn:    0.0000    constr:    0.0000

     End of self-consistent calculation

 ------ SPIN UP ------------

          k = 0.1250 0.1250 0.1250 (   964 PWs)   bands (ev):

    -4.2578   5.8843   6.9892   6.9893   7.3924   8.7186   8.7189   8.7789
     8.7792   9.0048   9.9720  10.1115  10.1118  10.3222  10.3229  10.8581
    11.1087  11.2720  11.2724  11.5576  11.5578  11.6280  11.8388  11.8388
    14.2494  17.0029  17.0032  17.1920  20.8226  20.8226

[...]

 ------ SPIN DOWN ----------

[...]

          k = 0.3750 0.1250 0.3750 (   969 PWs)   bands (ev):

    -3.5429   5.0102   5.0538   6.3493   8.0942   9.0704   9.0753   9.3808
     9.4631   9.5296   9.7286   9.8357   9.8773  10.2758  10.3453  10.5096
    10.7789  11.2563  11.2776  11.3387  11.4208  11.5532  11.8727  12.5297
    13.6314  16.0667  16.5624  18.4515  19.9124  21.6613

     the Fermi energy is    14.1935 ev

!    total energy              =    -880.37141944 Ry
     Harris-Foulkes estimate   =    -880.37141944 Ry
     estimated scf accuracy    <          5.9E-11 Ry

     total all-electron energy =    -13349.189282 Ry

     The total energy is the sum of the following terms:

     one-electron contribution =    -113.79163232 Ry
     hartree contribution      =     128.01656206 Ry
     xc contribution           =    -184.42635679 Ry
     ewald contribution        =    -342.80957599 Ry
     one-center paw contrib.   =    -367.35618427 Ry
     smearing contrib. (-TS)   =      -0.00423214 Ry

     total magnetization       =     0.00 Bohr mag/cell
     absolute magnetization    =     0.00 Bohr mag/cell

     convergence has been achieved in  13 iterations

     Writing output data file Cu2N.save

     General routines

     Parallel routines

   This run was terminated on:  14:53:53  22Apr2020

   JOB DONE.