     Program PHONON v.6.0 (svn rev. 13079) starts on 22Apr2020 at 18:24:12

     Reading data from directory:
     ./tmp/Cu2N.save

   Info: using nr1, nr2, nr3 values from input

[...]

     IMPORTANT: XC functional enforced from input :
     Exchange-correlation      =  SLA  PW   PBX  PBC ( 1  4  3  4 0 0)
     Any further DFT definition will be discarded
     Please, verify this is what you really want

               file Cu.pbe-dn-kjpaw_psl.1.0.0.UPF: wavefunction(s)  4S 3D renormalized
               file N.pbe-n-kjpaw_psl.1.0.0.UPF: wavefunction(s)  2S renormalized

     Generating pointlists ...
     new r_m :   0.2062 (alat units)  1.4499 (a.u.) for type    1
     new r_m :   0.2062 (alat units)  1.4499 (a.u.) for type    2

     Check: negative/imaginary core charge=   -0.000013    0.000000

     Dynamical matrices for ( 2, 2, 2)  uniform grid of q-points
     (   4q-points):
       N         xq(1)         xq(2)         xq(3)
       1   0.000000000   0.000000000   0.000000000
       2   0.000000000   0.000000000  -0.500000000
       3   0.000000000  -0.500000000  -0.500000000
       4  -0.500000000  -0.500000000  -0.500000000

     Calculation of q =    0.0000000   0.0000000   0.0000000

     bravais-lattice index     =            0
     lattice parameter (alat)  =       7.0298  a.u.
     unit-cell volume          =     347.3965 (a.u.)^3
     number of atoms/cell      =            5
     number of atomic types    =            2
     kinetic-energy cut-off    =      40.0000  Ry
     charge density cut-off    =     160.0000  Ry
     convergence threshold     =      1.0E-14
     beta                      =       0.7000
     number of iterations used =            4
     Exchange-correlation      =  SLA  PW   PBX  PBC ( 1  4  3  4 0 0)

     celldm(1)=    7.02978  celldm(2)=    0.00000  celldm(3)=    0.00000
     celldm(4)=    0.00000  celldm(5)=    0.00000  celldm(6)=    0.00000

     crystal axes: (cart. coord. in units of alat)
               a(1) = (  1.0000  0.0000  0.0000 )
               a(2) = (  0.0000  1.0000  0.0000 )
               a(3) = (  0.0000  0.0000  1.0000 )

     reciprocal axes: (cart. coord. in units 2 pi/alat)
               b(1) = (  1.0000  0.0000  0.0000 )
               b(2) = (  0.0000  1.0000  0.0000 )
               b(3) = (  0.0000  0.0000  1.0000 )

     Atoms inside the unit cell:

     Cartesian axes

     site n.  atom      mass           positions (alat units)
        1     Cu  63.5460   tau(    1) = (    0.00000    0.00000    0.00000  )
        2     Cu  63.5460   tau(    2) = (    0.50000    0.50000    0.00000  )
        3     Cu  63.5460   tau(    3) = (    0.00000    0.50000    0.50000  )
        4     Cu  63.5460   tau(    4) = (    0.50000    0.00000    0.50000  )
        5     N   14.0070   tau(    5) = (    0.00000    0.50000    1.00000  )

     Computing dynamical matrix for
                    q = (   0.0000000   0.0000000   0.0000000 )

     49 Sym.Ops. (with q -> -q+G )

     G cutoff =  200.2829  (    789 G-vectors)     FFT grid: ( 30, 30, 30)

     number of k points=     8  gaussian smearing, width (Ry)=  0.0200

     PseudoPot. # 1 for Cu read from file:
     ../../pseudo/Cu.pbe-dn-kjpaw_psl.1.0.0.UPF
     MD5 check sum: cfffd1f38ee05704b3e17f46f1730a6f
     Pseudo is Projector augmented-wave + core cor, Zval = 11.0
     Generated using "atomic" code by A. Dal Corso  v.6.3
     Shape of augmentation charge: PSQ
     Using radial grid of 1199 points,  6 beta functions with:
                l(1) =   0
                l(2) =   0
                l(3) =   1
                l(4) =   1
                l(5) =   2
                l(6) =   2
     Q(r) pseudized with 0 coefficients

     PseudoPot. # 2 for  N read from file:
     ../../pseudo/N.pbe-n-kjpaw_psl.1.0.0.UPF
     MD5 check sum: 14c48229446f9f2d411169a3abcbc3fa
     Pseudo is Projector augmented-wave + core cor, Zval =  5.0
     Generated using "atomic" code by A. Dal Corso  v.6.3
     Shape of augmentation charge: PSQ
     Using radial grid of 1085 points,  4 beta functions with:
                l(1) =   0
                l(2) =   0
                l(3) =   1
                l(4) =   1
     Q(r) pseudized with 0 coefficients

     Mode symmetry, O_h (m-3m)  point group:

     Atomic displacements:
     There are   5 irreducible representations

     Representation     1      3 modes -T_1u G_15  G_4-  To be done

[...]

     Representation     5      3 modes -T_2u G_25  G_5-  To be done

     Alpha used in Ewald sum =   1.5000

     Representation #  1 modes #   1  2  3

     Self-consistent Calculation

     Pert. #  1: Fermi energy shift (Ry) =     0.0000E+00     0.0000E+00
     Pert. #  2: Fermi energy shift (Ry) =     0.0000E+00     0.0000E+00
     Pert. #  3: Fermi energy shift (Ry) =     0.0000E+00     0.0000E+00

      thresh= 1.000E-02 alpha_mix =  0.700 |ddv_scf|^2 =  5.378E-07

[...]

     End of self-consistent calculation

     Convergence has been achieved

[...]

     Pert. #  1: Fermi energy shift (Ry) =     8.6165E-27     2.2959E-41
     Pert. #  2: Fermi energy shift (Ry) =    -1.7233E-26    -1.1479E-41
     Pert. #  3: Fermi energy shift (Ry) =     1.6156E-26     3.8265E-42

[...]

     Number of q in the star =    1
     List of q in the star:
          1   0.000000000   0.000000000   0.000000000

     Diagonalizing the dynamical matrix

     q = (    0.000000000   0.000000000   0.000000000 )

     freq (    1) =       0.402914 [THz] =      13.439750 [cm-1]
     freq (    2) =       0.402914 [THz] =      13.439750 [cm-1]
     freq (    3) =       0.402914 [THz] =      13.439750 [cm-1]
     freq (    4) =       2.962760 [THz] =      98.827024 [cm-1]
     freq (    5) =       2.962760 [THz] =      98.827024 [cm-1]
     freq (    6) =       2.962760 [THz] =      98.827024 [cm-1]
     freq (    7) =       4.717172 [THz] =     157.347906 [cm-1]
     freq (    8) =       4.717172 [THz] =     157.347906 [cm-1]
     freq (    9) =       4.717172 [THz] =     157.347906 [cm-1]
     freq (   10) =       5.632036 [THz] =     187.864511 [cm-1]
     freq (   11) =       5.632036 [THz] =     187.864511 [cm-1]
     freq (   12) =       5.632036 [THz] =     187.864511 [cm-1]
     freq (   13) =      21.783743 [THz] =     726.627447 [cm-1]
     freq (   14) =      21.783743 [THz] =     726.627447 [cm-1]
     freq (   15) =      21.783743 [THz] =     726.627447 [cm-1]

     Mode symmetry, O_h (m-3m)  point group:

     freq (  1 -  3) =         13.4  [cm-1]   --> T_1u G_15  G_4- I
     freq (  4 -  6) =         98.8  [cm-1]   --> T_2u G_25  G_5-
     freq (  7 -  9) =        157.3  [cm-1]   --> T_1u G_15  G_4- I
     freq ( 10 - 12) =        187.9  [cm-1]   --> T_1u G_15  G_4- I
     freq ( 13 - 15) =        726.6  [cm-1]   --> T_1u G_15  G_4- I

[...]

     bravais-lattice index     =            0
     lattice parameter (alat)  =       7.0298  a.u.
     unit-cell volume          =     347.3965 (a.u.)^3
     number of atoms/cell      =            5
     number of atomic types    =            2
     number of electrons       =        49.00
     number of Kohn-Sham states=           30
     kinetic-energy cutoff     =      40.0000  Ry
     charge density cutoff     =     160.0000  Ry
     Exchange-correlation      =  SLA  PW   PBX  PBC ( 1  4  3  4 0 0)

[...]

     atomic species   valence    mass     pseudopotential
        Cu            11.00    63.54600     Cu( 1.00)
        N              5.00    14.00700      N( 1.00)

     Starting magnetic structure
     atomic species   magnetization
        Cu           0.000
        N            0.000

     48 Sym. Ops., with inversion, found

[...]

     site n.     atom                  positions (alat units)
         1           Cu  tau(   1) = (   0.0000000   0.0000000   0.0000000  )
         2           Cu  tau(   2) = (   0.5000000   0.5000000   0.0000000  )
         3           Cu  tau(   3) = (   0.0000000   0.5000000   0.5000000  )
         4           Cu  tau(   4) = (   0.5000000   0.0000000   0.5000000  )
         5           N   tau(   5) = (   0.0000000   0.5000000   1.0000000  )

     number of k points=    12  gaussian smearing, width (Ry)=  0.0200
                       cart. coord. in units 2pi/alat
        k(    1) = (   0.1250000   0.1250000   0.1250000), wk =   0.1250000
        k(    2) = (   0.1250000   0.1250000  -0.3750000), wk =   0.0000000
        k(    3) = (   0.1250000   0.1250000   0.3750000), wk =   0.1250000
        k(    4) = (   0.1250000   0.1250000  -0.1250000), wk =   0.0000000
        k(    5) = (   0.1250000   0.3750000   0.3750000), wk =   0.2500000
        k(    6) = (   0.1250000   0.3750000  -0.1250000), wk =   0.0000000
        k(    7) = (   0.3750000   0.3750000   0.3750000), wk =   0.1250000
        k(    8) = (   0.3750000   0.3750000  -0.1250000), wk =   0.0000000
        k(    9) = (   0.1250000   0.3750000   0.1250000), wk =   0.2500000
        k(   10) = (   0.1250000   0.3750000  -0.3750000), wk =   0.0000000
        k(   11) = (   0.3750000   0.3750000   0.1250000), wk =   0.1250000
        k(   12) = (   0.3750000   0.3750000  -0.3750000), wk =   0.0000000

[...]

     The potential is recalculated from file :
     ./tmp/_ph0/Cu2N.save/charge-density.dat

     Starting wfc are   40 atomic wfcs
     Checking if some PAW data can be deallocated...

     Band Structure Calculation
     Davidson diagonalization with overlap

     ethr =  2.04E-11,  avg # of iterations = 13.5

     End of band structure calculation

 ------ SPIN UP ------------

          k = 0.1250 0.1250 0.1250 (  1466 PWs)   bands (ev):

    -4.2062   5.8845   6.9926   6.9926   7.4091   8.7683   8.7683   8.8324
     8.8324   9.0514  10.0375  10.1840  10.1841  10.3790  10.3790  10.9273
    11.1701  11.3387  11.3388  11.6166  11.6166  11.6888  11.8966  11.8966
    14.2709  16.9840  16.9840  17.1851  20.7991  20.7991

[...]

 ------ SPIN DOWN ----------

[...]

     the Fermi energy is    14.2110 ev

     Writing output data file Cu2N.save

[...]

     Representation     1      2 modes -  To be done

[...]

     Representation #  3 mode #   5

[...]

     Calculation of q =   -0.5000000  -0.5000000  -0.5000000

[...]

   Info: using nr1, nr2, nr3 values from input

     bravais-lattice index     =            0
     lattice parameter (alat)  =       7.0298  a.u.
     unit-cell volume          =     347.3965 (a.u.)^3
     number of atoms/cell      =            5
     number of atomic types    =            2
     number of electrons       =        49.00
     number of Kohn-Sham states=           30
     kinetic-energy cutoff     =      40.0000  Ry
     charge density cutoff     =     160.0000  Ry
     Exchange-correlation      =  SLA  PW   PBX  PBC ( 1  4  3  4 0 0)

[...]

     atomic species   valence    mass     pseudopotential
        Cu            11.00    63.54600     Cu( 1.00)
        N              5.00    14.00700      N( 1.00)

     Starting magnetic structure
     atomic species   magnetization
        Cu           0.000
        N            0.000

     48 Sym. Ops., with inversion, found

[...]

     site n.     atom                  positions (alat units)
         1           Cu  tau(   1) = (   0.0000000   0.0000000   0.0000000  )
         2           Cu  tau(   2) = (   0.5000000   0.5000000   0.0000000  )
         3           Cu  tau(   3) = (   0.0000000   0.5000000   0.5000000  )
         4           Cu  tau(   4) = (   0.5000000   0.0000000   0.5000000  )
         5           N   tau(   5) = (   0.0000000   0.5000000   1.0000000  )

     number of k points=     8  gaussian smearing, width (Ry)=  0.0200
                       cart. coord. in units 2pi/alat
        k(    1) = (   0.1250000   0.1250000   0.1250000), wk =   0.1250000
        k(    2) = (  -0.3750000  -0.3750000  -0.3750000), wk =   0.0000000
        k(    3) = (   0.1250000   0.1250000   0.3750000), wk =   0.3750000
        k(    4) = (  -0.3750000  -0.3750000  -0.1250000), wk =   0.0000000
        k(    5) = (   0.1250000   0.3750000   0.3750000), wk =   0.3750000
        k(    6) = (  -0.3750000  -0.1250000  -0.1250000), wk =   0.0000000
        k(    7) = (   0.3750000   0.3750000   0.3750000), wk =   0.1250000
        k(    8) = (  -0.1250000  -0.1250000  -0.1250000), wk =   0.0000000

     Check: negative/imaginary core charge=   -0.000013    0.000000

     The potential is recalculated from file :
     ./tmp/_ph0/Cu2N.save/charge-density.dat

     Starting wfc are   40 atomic wfcs
     Checking if some PAW data can be deallocated...

     Band Structure Calculation
     Davidson diagonalization with overlap

     ethr =  2.04E-11,  avg # of iterations = 13.0

     End of band structure calculation

 ------ SPIN UP ------------

[...]

          k =-0.3750-0.3750-0.3750 (  1487 PWs)   bands (ev):

[...]

 ------ SPIN DOWN ----------

[...]

          k = 0.3750 0.3750 0.3750 (  1487 PWs)   bands (ev):

[...]

          k =-0.1250-0.1250-0.1250 (  1466 PWs)   bands (ev):

    -4.2062   5.8845   6.9926   6.9926   7.4091   8.7683   8.7683   8.8324
     8.8324   9.0514  10.0375  10.1840  10.1841  10.3790  10.3790  10.9273
    11.1701  11.3387  11.3388  11.6166  11.6166  11.6888  11.8966  11.8966
    14.2709  16.9840  16.9840  17.1851  20.7991  20.7991

     the Fermi energy is    14.2110 ev

     Writing output data file Cu2N.save

     bravais-lattice index     =            0
     lattice parameter (alat)  =       7.0298  a.u.
     unit-cell volume          =     347.3965 (a.u.)^3
     number of atoms/cell      =            5
     number of atomic types    =            2
     kinetic-energy cut-off    =      40.0000  Ry
     charge density cut-off    =     160.0000  Ry
     convergence threshold     =      1.0E-14
     beta                      =       0.7000
     number of iterations used =            4
     Exchange-correlation      =  SLA  PW   PBX  PBC ( 1  4  3  4 0 0)

     celldm(1)=    7.02978  celldm(2)=    0.00000  celldm(3)=    0.00000
     celldm(4)=    0.00000  celldm(5)=    0.00000  celldm(6)=    0.00000

     crystal axes: (cart. coord. in units of alat)
               a(1) = (  1.0000  0.0000  0.0000 )
               a(2) = (  0.0000  1.0000  0.0000 )
               a(3) = (  0.0000  0.0000  1.0000 )

     reciprocal axes: (cart. coord. in units 2 pi/alat)
               b(1) = (  1.0000  0.0000  0.0000 )
               b(2) = (  0.0000  1.0000  0.0000 )
               b(3) = (  0.0000  0.0000  1.0000 )

     Atoms inside the unit cell:

     Cartesian axes

     site n.  atom      mass           positions (alat units)
        1     Cu  63.5460   tau(    1) = (    0.00000    0.00000    0.00000  )
        2     Cu  63.5460   tau(    2) = (    0.50000    0.50000    0.00000  )
        3     Cu  63.5460   tau(    3) = (    0.00000    0.50000    0.50000  )
        4     Cu  63.5460   tau(    4) = (    0.50000    0.00000    0.50000  )
        5     N   14.0070   tau(    5) = (    0.00000    0.50000    1.00000  )

     Computing dynamical matrix for
                    q = (  -0.5000000  -0.5000000  -0.5000000 )

     49 Sym.Ops. (with q -> -q+G )

     G cutoff =  200.2829  (    789 G-vectors)     FFT grid: ( 30, 30, 30)

     number of k points=    16  gaussian smearing, width (Ry)=  0.0200

     PseudoPot. # 1 for Cu read from file:
     ../../pseudo/Cu.pbe-dn-kjpaw_psl.1.0.0.UPF
     MD5 check sum: cfffd1f38ee05704b3e17f46f1730a6f
     Pseudo is Projector augmented-wave + core cor, Zval = 11.0
     Generated using "atomic" code by A. Dal Corso  v.6.3
     Shape of augmentation charge: PSQ
     Using radial grid of 1199 points,  6 beta functions with:
                l(1) =   0
                l(2) =   0
                l(3) =   1
                l(4) =   1
                l(5) =   2
                l(6) =   2
     Q(r) pseudized with 0 coefficients

     PseudoPot. # 2 for  N read from file:
     ../../pseudo/N.pbe-n-kjpaw_psl.1.0.0.UPF
     MD5 check sum: 14c48229446f9f2d411169a3abcbc3fa
     Pseudo is Projector augmented-wave + core cor, Zval =  5.0
     Generated using "atomic" code by A. Dal Corso  v.6.3
     Shape of augmentation charge: PSQ
     Using radial grid of 1085 points,  4 beta functions with:
                l(1) =   0
                l(2) =   0
                l(3) =   1
                l(4) =   1
     Q(r) pseudized with 0 coefficients

     Atomic displacements:
     There are   6 irreducible representations

[...]

     Representation     6      2 modes -  To be done

     Alpha used in Ewald sum =   1.5000

     Representation #  1 mode #   1

[...]

     Representation #  6 modes #  14 15

     Self-consistent Calculation

[...]

      thresh= 2.036E-07 alpha_mix =  0.700 |ddv_scf|^2 =  3.938E-15

     End of self-consistent calculation

     Convergence has been achieved

     Number of q in the star =    1
     List of q in the star:
          1  -0.500000000  -0.500000000  -0.500000000

     Diagonalizing the dynamical matrix

     q = (   -0.500000000  -0.500000000  -0.500000000 )

     freq (    1) =       2.603303 [THz] =      86.836853 [cm-1]
     freq (    2) =       2.603303 [THz] =      86.836853 [cm-1]
     freq (    3) =       2.603303 [THz] =      86.836853 [cm-1]
     freq (    4) =       3.412449 [THz] =     113.827043 [cm-1]
     freq (    5) =       3.412449 [THz] =     113.827043 [cm-1]
     freq (    6) =       3.412449 [THz] =     113.827043 [cm-1]
     freq (    7) =       6.190395 [THz] =     206.489356 [cm-1]
     freq (    8) =       6.190395 [THz] =     206.489356 [cm-1]
     freq (    9) =       6.190395 [THz] =     206.489356 [cm-1]
     freq (   10) =       9.518063 [THz] =     317.488400 [cm-1]
     freq (   11) =       9.518063 [THz] =     317.488400 [cm-1]
     freq (   12) =      11.918672 [THz] =     397.564101 [cm-1]
     freq (   13) =      19.638568 [THz] =     655.072101 [cm-1]
     freq (   14) =      19.638568 [THz] =     655.072101 [cm-1]
     freq (   15) =      19.638568 [THz] =     655.072101 [cm-1]

     General routines

     Parallel routines

     INITIALIZATION:

     DYNAMICAL MATRIX:

      General routines

   This run was terminated on:  20:27:55  22Apr2020

   JOB DONE.