     Program PWSCF v.6.0 (svn rev. 13079) starts on 22Apr2020 at 18:22:59

     Current dimensions of program PWSCF are:
     Max number of different atomic species (ntypx) = 10
     Max number of k-points (npk) =  40000
     Max angular momentum in pseudopotentials (lmaxx) =  3
               file Cu.pbe-dn-kjpaw_psl.1.0.0.UPF: wavefunction(s)  4S 3D renormalized
               file N.pbe-n-kjpaw_psl.1.0.0.UPF: wavefunction(s)  2S renormalized

     Subspace diagonalization in iterative solution of the eigenvalue problem:
     one sub-group per band group will be used

     bravais-lattice index     =            0
     lattice parameter (alat)  =       7.0298  a.u.
     unit-cell volume          =     347.3965 (a.u.)^3
     number of atoms/cell      =            5
     number of atomic types    =            2
     number of electrons       =        49.00
     number of Kohn-Sham states=           30
     kinetic-energy cutoff     =      40.0000  Ry
     charge density cutoff     =     160.0000  Ry
     convergence threshold     =      1.0E-10
     mixing beta               =       0.7000
     number of iterations used =            8  plain     mixing
     Exchange-correlation      =  SLA  PW   PBX  PBC ( 1  4  3  4 0 0)

     celldm(1)=   7.029781  celldm(2)=   0.000000  celldm(3)=   0.000000
     celldm(4)=   0.000000  celldm(5)=   0.000000  celldm(6)=   0.000000

     crystal axes: (cart. coord. in units of alat)
               a(1) = (   1.000000   0.000000   0.000000 )
               a(2) = (   0.000000   1.000000   0.000000 )
               a(3) = (   0.000000   0.000000   1.000000 )

     reciprocal axes: (cart. coord. in units 2 pi/alat)
               b(1) = (  1.000000  0.000000  0.000000 )
               b(2) = (  0.000000  1.000000  0.000000 )
               b(3) = (  0.000000  0.000000  1.000000 )

     PseudoPot. # 1 for Cu read from file:
     ../../pseudo/Cu.pbe-dn-kjpaw_psl.1.0.0.UPF
     MD5 check sum: cfffd1f38ee05704b3e17f46f1730a6f
     Pseudo is Projector augmented-wave + core cor, Zval = 11.0
     Generated using "atomic" code by A. Dal Corso  v.6.3
     Shape of augmentation charge: PSQ
     Using radial grid of 1199 points,  6 beta functions with:
                l(1) =   0
                l(2) =   0
                l(3) =   1
                l(4) =   1
                l(5) =   2
                l(6) =   2
     Q(r) pseudized with 0 coefficients

     PseudoPot. # 2 for  N read from file:
     ../../pseudo/N.pbe-n-kjpaw_psl.1.0.0.UPF
     MD5 check sum: 14c48229446f9f2d411169a3abcbc3fa
     Pseudo is Projector augmented-wave + core cor, Zval =  5.0
     Generated using "atomic" code by A. Dal Corso  v.6.3
     Shape of augmentation charge: PSQ
     Using radial grid of 1085 points,  4 beta functions with:
                l(1) =   0
                l(2) =   0
                l(3) =   1
                l(4) =   1
     Q(r) pseudized with 0 coefficients

     atomic species   valence    mass     pseudopotential
        Cu            11.00    63.54600     Cu( 1.00)
        N              5.00    14.00700      N( 1.00)

     Starting magnetic structure
     atomic species   magnetization
        Cu           0.000
        N            0.000

     48 Sym. Ops., with inversion, found (32 have fractional translation)

   Cartesian axes

     site n.     atom                  positions (alat units)
         1           Cu  tau(   1) = (   0.0000000   0.0000000   0.0000000  )
         2           Cu  tau(   2) = (   0.5000000   0.5000000   0.0000000  )
         3           Cu  tau(   3) = (   0.0000000   0.5000000   0.5000000  )
         4           Cu  tau(   4) = (   0.5000000   0.0000000   0.5000000  )
         5           N   tau(   5) = (   0.0000000   0.5000000   1.0000000  )

     number of k points=     4  gaussian smearing, width (Ry)=  0.0200
                       cart. coord. in units 2pi/alat
        k(    1) = (   0.1250000   0.1250000   0.1250000), wk =   0.1250000
        k(    2) = (   0.1250000   0.1250000   0.3750000), wk =   0.3750000
        k(    3) = (   0.1250000   0.3750000   0.3750000), wk =   0.3750000
        k(    4) = (   0.3750000   0.3750000   0.3750000), wk =   0.1250000

     Check: negative/imaginary core charge=   -0.000013    0.000000

     Initial potential from superposition of free atoms

     starting charge   48.99908, renormalised to   49.00000
     Starting wfc are   40 randomized atomic wfcs
     Checking if some PAW data can be deallocated...

     Self-consistent Calculation

     iteration #  1     ecut=    40.00 Ry     beta=0.70
     Davidson diagonalization with overlap
     ethr =  1.00E-02,  avg # of iterations =  2.8

     total energy              =    -879.97802500 Ry
     Harris-Foulkes estimate   =    -880.60798230 Ry
     estimated scf accuracy    <       0.76614451 Ry

     total magnetization       =     0.00 Bohr mag/cell
     absolute magnetization    =     0.01 Bohr mag/cell

[...]

     total energy              =    -880.44739973 Ry
     Harris-Foulkes estimate   =    -880.44739973 Ry
     estimated scf accuracy    <          1.5E-10 Ry

[...]

     iteration # 12     ecut=    40.00 Ry     beta=0.70
     Davidson diagonalization with overlap
     ethr =  2.97E-13,  avg # of iterations =  2.0

     Magnetic moment per site:
     atom:    1    charge:    8.3602    magn:    0.0000    constr:    0.0000
     atom:    2    charge:    8.3602    magn:    0.0000    constr:    0.0000
     atom:    3    charge:    8.3602    magn:    0.0000    constr:    0.0000
     atom:    4    charge:    8.3839    magn:    0.0000    constr:    0.0000
     atom:    5    charge:    4.0689    magn:    0.0000    constr:    0.0000

     End of self-consistent calculation

 ------ SPIN UP ------------

          k = 0.1250 0.1250 0.1250 (  1466 PWs)   bands (ev):

    -4.2062   5.8845   6.9926   6.9926   7.4091   8.7683   8.7683   8.8324
     8.8324   9.0514  10.0375  10.1840  10.1840  10.3790  10.3790  10.9273
    11.1701  11.3387  11.3387  11.6166  11.6166  11.6888  11.8965  11.8965
    14.2709  16.9840  16.9840  17.1851  20.7991  20.7991

[...]

 ------ SPIN DOWN ----------

[...]

          k = 0.3750 0.3750 0.3750 (  1487 PWs)   bands (ev):

    -3.1123   4.9185   4.9185   4.9664   8.2723   9.0857   9.2880   9.2880
     9.7955   9.7955  10.0039  10.2513  10.2513  10.4123  10.4123  10.5682
    11.1065  11.3158  11.3914  11.3914  11.5198  11.5198  12.5846  12.5846
    14.3212  14.3212  14.5096  17.8605  20.2640  21.2666

     the Fermi energy is    14.2110 ev

!    total energy              =    -880.44739973 Ry
     Harris-Foulkes estimate   =    -880.44739973 Ry
     estimated scf accuracy    <          2.1E-11 Ry

     total all-electron energy =    -13349.265262 Ry

     The total energy is the sum of the following terms:

     one-electron contribution =    -114.01290735 Ry
     hartree contribution      =     128.30573595 Ry
     xc contribution           =    -184.53493538 Ry
     ewald contribution        =    -342.80957328 Ry
     one-center paw contrib.   =    -367.39147446 Ry
     smearing contrib. (-TS)   =      -0.00424521 Ry

     total magnetization       =     0.00 Bohr mag/cell
     absolute magnetization    =     0.00 Bohr mag/cell

     convergence has been achieved in  12 iterations

     Writing output data file Cu2N.save

     General routines

     Parallel routines

   This run was terminated on:  18:23:35  22Apr2020

   JOB DONE.