     Program PWSCF v.6.0 (svn rev. 13079) starts on 11Jun2020 at 21:42:20

     Current dimensions of program PWSCF are:
     Max number of different atomic species (ntypx) = 10
     Max number of k-points (npk) =  40000
     Max angular momentum in pseudopotentials (lmaxx) =  3
               file Cu.pbe-dn-kjpaw_psl.1.0.0.UPF: wavefunction(s)  4S 3D renormalized
               file N.pbe-n-kjpaw_psl.1.0.0.UPF: wavefunction(s)  2S renormalized

     gamma-point specific algorithms are used

     Subspace diagonalization in iterative solution of the eigenvalue problem:
     one sub-group per band group will be used

     bravais-lattice index     =            0
     lattice parameter (alat)  =       7.0055  a.u.
     unit-cell volume          =     359.3820 (a.u.)^3
     number of atoms/cell      =            5
     number of atomic types    =            2
     number of electrons       =        49.00
     number of Kohn-Sham states=           30
     kinetic-energy cutoff     =      30.0000  Ry
     charge density cutoff     =     240.0000  Ry
     convergence threshold     =      1.0E-10
     mixing beta               =       0.7000
     number of iterations used =            8  plain     mixing
     Exchange-correlation      =  SLA  PW   PBX  PBC ( 1  4  3  4 0 0)

     celldm(1)=   7.005497  celldm(2)=   0.000000  celldm(3)=   0.000000
     celldm(4)=   0.000000  celldm(5)=   0.000000  celldm(6)=   0.000000

     crystal axes: (cart. coord. in units of alat)
               a(1) = (   1.000000   0.000000   0.000000 )
               a(2) = (   0.000000   0.999876   0.000000 )
               a(3) = (   0.000000   0.000000   1.045427 )

     reciprocal axes: (cart. coord. in units 2 pi/alat)
               b(1) = (  1.000000  0.000000  0.000000 )
               b(2) = (  0.000000  1.000124  0.000000 )
               b(3) = (  0.000000  0.000000  0.956547 )

     PseudoPot. # 1 for Cu read from file:
     ../pseudo/Cu.pbe-dn-kjpaw_psl.1.0.0.UPF
     MD5 check sum: cfffd1f38ee05704b3e17f46f1730a6f
     Pseudo is Projector augmented-wave + core cor, Zval = 11.0
     Generated using "atomic" code by A. Dal Corso  v.6.3
     Shape of augmentation charge: PSQ
     Using radial grid of 1199 points,  6 beta functions with:
                l(1) =   0
                l(2) =   0
                l(3) =   1
                l(4) =   1
                l(5) =   2
                l(6) =   2
     Q(r) pseudized with 0 coefficients

     PseudoPot. # 2 for  N read from file:
     ../pseudo/N.pbe-n-kjpaw_psl.1.0.0.UPF
     MD5 check sum: 14c48229446f9f2d411169a3abcbc3fa
     Pseudo is Projector augmented-wave + core cor, Zval =  5.0
     Generated using "atomic" code by A. Dal Corso  v.6.3
     Shape of augmentation charge: PSQ
     Using radial grid of 1085 points,  4 beta functions with:
                l(1) =   0
                l(2) =   0
                l(3) =   1
                l(4) =   1
     Q(r) pseudized with 0 coefficients

     atomic species   valence    mass     pseudopotential
        Cu            11.00    63.54600     Cu( 1.00)
        N              5.00    14.00700      N( 1.00)

     Starting magnetic structure
     atomic species   magnetization
        Cu           0.000
        N            0.000

      4 Sym. Ops. (no inversion) found

   Cartesian axes

     site n.     atom                  positions (alat units)
         1           Cu  tau(   1) = (   0.0000000   0.0000000   0.0000000  )
         2           Cu  tau(   2) = (   0.5000000   0.4999378   0.0000000  )
         3           Cu  tau(   3) = (   0.0000000   0.4999378   0.4749170  )
         4           Cu  tau(   4) = (   0.5000000   0.0000000   0.4747944  )
         5           N   tau(   5) = (   0.0000000   0.4999378   0.9976365  )

     number of k points=     1  gaussian smearing, width (Ry)=  0.0200
                       cart. coord. in units 2pi/alat
        k(    1) = (   0.0000000   0.0000000   0.0000000), wk =   1.0000000

     Check: negative/imaginary core charge=   -0.000001    0.000000

     Initial potential from superposition of free atoms

     starting charge   48.99908, renormalised to   49.00000
     Starting wfc are   40 randomized atomic wfcs
     Checking if some PAW data can be deallocated...

     Self-consistent Calculation

     iteration #  1     ecut=    30.00 Ry     beta=0.70
     Davidson diagonalization with overlap
     ethr =  1.00E-02,  avg # of iterations =  2.0

     total energy              =    -879.67797003 Ry
     Harris-Foulkes estimate   =    -880.43308607 Ry
     estimated scf accuracy    <       0.93285723 Ry

     total magnetization       =     0.03 Bohr mag/cell
     absolute magnetization    =     0.05 Bohr mag/cell

[...]

     total energy              =    -880.19532107 Ry
     Harris-Foulkes estimate   =    -880.19532107 Ry
     estimated scf accuracy    <          4.7E-10 Ry

[...]

     iteration # 18     ecut=    30.00 Ry     beta=0.70
     Davidson diagonalization with overlap
     ethr =  9.56E-13,  avg # of iterations =  2.0

     Magnetic moment per site:
     atom:    1    charge:    8.4246    magn:    0.0000    constr:    0.0000
     atom:    2    charge:    8.4247    magn:    0.0000    constr:    0.0000
     atom:    3    charge:    8.4330    magn:   -0.0000    constr:    0.0000
     atom:    4    charge:    8.4571    magn:    0.0000    constr:    0.0000
     atom:    5    charge:    4.0666    magn:    0.0000    constr:    0.0000

     End of self-consistent calculation

 ------ SPIN UP ------------

          k = 0.0000 0.0000 0.0000 (   499 PWs)   bands (ev):

    -3.2561   5.3960   8.1988   8.3688   8.4641   8.6144   8.6146   8.8102
     8.9397   8.9402  10.0521  10.2179  10.2184  10.8240  10.8406  11.2621
    11.3601  11.4184  11.4189  11.4334  11.6511  11.6799  11.7297  11.7298
    14.1917  16.8859  17.4659  17.4674  18.2046  18.8652

 ------ SPIN DOWN ----------

          k = 0.0000 0.0000 0.0000 (   499 PWs)   bands (ev):

    -3.2560   5.3960   8.1988   8.3687   8.4641   8.6144   8.6146   8.8102
     8.9397   8.9402  10.0521  10.2179  10.2184  10.8240  10.8406  11.2621
    11.3601  11.4184  11.4189  11.4334  11.6511  11.6799  11.7297  11.7298
    14.1917  16.8859  17.4659  17.4675  18.2046  18.8652

     the Fermi energy is    14.1917 ev

!    total energy              =    -880.19532107 Ry
     Harris-Foulkes estimate   =    -880.19532107 Ry
     estimated scf accuracy    <          2.9E-11 Ry

     total all-electron energy =    -13349.013184 Ry

     The total energy is the sum of the following terms:

     one-electron contribution =    -123.78065808 Ry
     hartree contribution      =     133.62822880 Ry
     xc contribution           =    -184.84251605 Ry
     ewald contribution        =    -337.92341452 Ry
     one-center paw contrib.   =    -367.26567744 Ry
     smearing contrib. (-TS)   =      -0.01128379 Ry

     total magnetization       =     0.00 Bohr mag/cell
     absolute magnetization    =     0.00 Bohr mag/cell

     convergence has been achieved in  18 iterations

     Writing output data file Cu2N.save

     General routines

     Parallel routines

   This run was terminated on:  21:42:52  11Jun2020

   JOB DONE.