     Program PHONON v.6.0 (svn rev. 13079) starts on 26Jun2020 at 13: 2: 9

     Reading data from directory:
     ./tmp/Cu2N.save

   Info: using nr1, nr2, nr3 values from input

   Info: using nr1, nr2, nr3 values from input

     IMPORTANT: XC functional enforced from input :
     Exchange-correlation      =  SLA  PW   PBX  PBC ( 1  4  3  4 0 0)
     Any further DFT definition will be discarded
     Please, verify this is what you really want

               file Cu.pbe-dn-kjpaw_psl.1.0.0.UPF: wavefunction(s)  4S 3D renormalized
               file N.pbe-n-kjpaw_psl.1.0.0.UPF: wavefunction(s)  2S renormalized

     Generating pointlists ...
     new r_m :   0.1969 (alat units)  1.3792 (a.u.) for type    1
     new r_m :   0.1969 (alat units)  1.3792 (a.u.) for type    2

     Check: negative/imaginary core charge=   -0.000075    0.000000

     Calculation of q =    0.0000000   0.0000000   0.0000000

     bravais-lattice index     =            0
     lattice parameter (alat)  =       7.0055  a.u.
     unit-cell volume          =     343.7659 (a.u.)^3
     number of atoms/cell      =            5
     number of atomic types    =            2
     kinetic-energy cut-off    =      30.0000  Ry
     charge density cut-off    =     120.0000  Ry
     convergence threshold     =      1.0E-14
     beta                      =       0.7000
     number of iterations used =            4
     Exchange-correlation      =  SLA  PW   PBX  PBC ( 1  4  3  4 0 0)

     celldm(1)=    7.00550  celldm(2)=    0.00000  celldm(3)=    0.00000
     celldm(4)=    0.00000  celldm(5)=    0.00000  celldm(6)=    0.00000

     crystal axes: (cart. coord. in units of alat)
               a(1) = (  1.0000  0.0000  0.0000 )
               a(2) = (  0.0000  0.9999  0.0000 )
               a(3) = (  0.0000  0.0000  1.0000 )

     reciprocal axes: (cart. coord. in units 2 pi/alat)
               b(1) = (  1.0000  0.0000  0.0000 )
               b(2) = (  0.0000  1.0001  0.0000 )
               b(3) = (  0.0000  0.0000  1.0000 )

     Atoms inside the unit cell:

     Cartesian axes

     site n.  atom      mass           positions (alat units)
        1     Cu  63.5460   tau(    1) = (    0.00000    0.00000    0.00000  )
        2     Cu  63.5460   tau(    2) = (    0.50000    0.49994    0.00000  )
        3     Cu  63.5460   tau(    3) = (    0.00000    0.49994    0.47492  )
        4     Cu  63.5460   tau(    4) = (    0.50000    0.00000    0.47479  )
        5     N   14.0070   tau(    5) = (    0.00000    0.49994    0.99764  )

     Computing dynamical matrix for
                    q = (   0.0000000   0.0000000   0.0000000 )

      5 Sym.Ops. (with q -> -q+G )

     G cutoff =  149.1761  (    769 G-vectors)     FFT grid: ( 25, 25, 25)

     number of k points=    16  gaussian smearing, width (Ry)=  0.0200
                       cart. coord. in units 2pi/alat
        k(    1) = (   0.1250000   0.1250155   0.1250000), wk =   0.1250000
        k(    2) = (   0.1250000   0.1250155   0.3750000), wk =   0.1250000
        k(    3) = (   0.1250000   0.3750466   0.1250000), wk =   0.1250000
        k(    4) = (   0.1250000   0.3750466   0.3750000), wk =   0.1250000
        k(    5) = (   0.3750000   0.1250155   0.3750000), wk =   0.1250000
        k(    6) = (   0.3750000   0.3750466   0.3750000), wk =   0.1250000
        k(    7) = (   0.3750000  -0.1250155   0.1250000), wk =   0.1250000
        k(    8) = (   0.3750000  -0.3750466   0.1250000), wk =   0.1250000
        k(    9) = (   0.1250000   0.1250155   0.1250000), wk =   0.1250000
        k(   10) = (   0.1250000   0.1250155   0.3750000), wk =   0.1250000
        k(   11) = (   0.1250000   0.3750466   0.1250000), wk =   0.1250000
        k(   12) = (   0.1250000   0.3750466   0.3750000), wk =   0.1250000
        k(   13) = (   0.3750000   0.1250155   0.3750000), wk =   0.1250000
        k(   14) = (   0.3750000   0.3750466   0.3750000), wk =   0.1250000
        k(   15) = (   0.3750000  -0.1250155   0.1250000), wk =   0.1250000
        k(   16) = (   0.3750000  -0.3750466   0.1250000), wk =   0.1250000

     PseudoPot. # 1 for Cu read from file:
     ../../pseudo/Cu.pbe-dn-kjpaw_psl.1.0.0.UPF
     MD5 check sum: cfffd1f38ee05704b3e17f46f1730a6f
     Pseudo is Projector augmented-wave + core cor, Zval = 11.0
     Generated using "atomic" code by A. Dal Corso  v.6.3
     Shape of augmentation charge: PSQ
     Using radial grid of 1199 points,  6 beta functions with:
                l(1) =   0
                l(2) =   0
                l(3) =   1
                l(4) =   1
                l(5) =   2
                l(6) =   2
     Q(r) pseudized with 0 coefficients

     PseudoPot. # 2 for  N read from file:
     ../../pseudo/N.pbe-n-kjpaw_psl.1.0.0.UPF
     MD5 check sum: 14c48229446f9f2d411169a3abcbc3fa
     Pseudo is Projector augmented-wave + core cor, Zval =  5.0
     Generated using "atomic" code by A. Dal Corso  v.6.3
     Shape of augmentation charge: PSQ
     Using radial grid of 1085 points,  4 beta functions with:
                l(1) =   0
                l(2) =   0
                l(3) =   1
                l(4) =   1
     Q(r) pseudized with 0 coefficients

     Mode symmetry, C_2v (mm2)  point group:

     Atomic displacements:
     There are  15 irreducible representations

     Representation     1      1 modes -A_1  D_1  S_1  To be done

[...]

     Representation    15      1 modes -B_2  D_4  S_4  To be done

     Alpha used in Ewald sum =   1.1000

     Representation #  1 mode #   1

     Self-consistent Calculation

     Pert. #  1: Fermi energy shift (Ry) =    -8.4816E-04     0.0000E+00

      thresh= 1.000E-02 alpha_mix =  0.700 |ddv_scf|^2 =  2.832E-05

[...]

     End of self-consistent calculation

     Convergence has been achieved

[...]

     Representation # 15 mode #  15

     Self-consistent Calculation

[...]

     Pert. #  1: Fermi energy shift (Ry) =     0.0000E+00     0.0000E+00

      thresh= 3.816E-08 alpha_mix =  0.700 |ddv_scf|^2 =  4.994E-15

     End of self-consistent calculation

     Convergence has been achieved

     Number of q in the star =    1
     List of q in the star:
          1   0.000000000   0.000000000   0.000000000

     Diagonalizing the dynamical matrix

     q = (    0.000000000   0.000000000   0.000000000 )

     freq (    1) =      -0.954717 [THz] =     -31.845922 [cm-1]
     freq (    2) =      -0.904358 [THz] =     -30.166147 [cm-1]
     freq (    3) =       0.934510 [THz] =      31.171883 [cm-1]
     freq (    4) =       2.961675 [THz] =      98.790855 [cm-1]
     freq (    5) =       3.005405 [THz] =     100.249534 [cm-1]
     freq (    6) =       3.145528 [THz] =     104.923513 [cm-1]
     freq (    7) =       4.323726 [THz] =     144.223973 [cm-1]
     freq (    8) =       4.512813 [THz] =     150.531229 [cm-1]
     freq (    9) =       4.734887 [THz] =     157.938830 [cm-1]
     freq (   10) =       5.635035 [THz] =     187.964547 [cm-1]
     freq (   11) =       5.687910 [THz] =     189.728239 [cm-1]
     freq (   12) =       5.741050 [THz] =     191.500804 [cm-1]
     freq (   13) =      21.612372 [THz] =     720.911141 [cm-1]
     freq (   14) =      21.626144 [THz] =     721.370527 [cm-1]
     freq (   15) =      23.090021 [THz] =     770.200202 [cm-1]

     Mode symmetry, C_2v (mm2)  point group:

     freq (  1 -  1) =        -31.8  [cm-1]   --> B_2  D_4  S_4   I+R
     freq (  2 -  2) =        -30.2  [cm-1]   --> A_1  D_1  S_1   I+R
     freq (  3 -  3) =         31.2  [cm-1]   --> B_1  D_3  S_3   I+R
     freq (  4 -  4) =         98.8  [cm-1]   --> B_2  D_4  S_4   I+R
     freq (  5 -  5) =        100.2  [cm-1]   --> B_1  D_3  S_3   I+R
     freq (  6 -  6) =        104.9  [cm-1]   --> A_1  D_1  S_1   I+R
     freq (  7 -  7) =        144.2  [cm-1]   --> B_2  D_4  S_4   I+R
     freq (  8 -  8) =        150.5  [cm-1]   --> A_1  D_1  S_1   I+R
     freq (  9 -  9) =        157.9  [cm-1]   --> B_1  D_3  S_3   I+R
     freq ( 10 - 10) =        188.0  [cm-1]   --> B_2  D_4  S_4   I+R
     freq ( 11 - 11) =        189.7  [cm-1]   --> B_1  D_3  S_3   I+R
     freq ( 12 - 12) =        191.5  [cm-1]   --> A_1  D_1  S_1   I+R
     freq ( 13 - 13) =        720.9  [cm-1]   --> B_2  D_4  S_4   I+R
     freq ( 14 - 14) =        721.4  [cm-1]   --> B_1  D_3  S_3   I+R
     freq ( 15 - 15) =        770.2  [cm-1]   --> A_1  D_1  S_1   I+R

     INITIALIZATION:

     DYNAMICAL MATRIX:

      General routines

   This run was terminated on:  13:37:33  26Jun2020

   JOB DONE.