     Program PHONON v.6.0 (svn rev. 13079) starts on 10Apr2020 at 11:26: 1

     Reading data from directory:
     ./tmp/Cu2N.save

   Info: using nr1, nr2, nr3 values from input

   Info: using nr1, nr2, nr3 values from input

     IMPORTANT: XC functional enforced from input :
     Exchange-correlation      =  SLA  PW   PBX  PBC ( 1  4  3  4 0 0)
     Any further DFT definition will be discarded
     Please, verify this is what you really want

               file Cu.pbe-dn-kjpaw_psl.1.0.0.UPF: wavefunction(s)  4S 3D renormalized
               file N.pbe-n-kjpaw_psl.1.0.0.UPF: wavefunction(s)  2S renormalized

     Generating pointlists ...
     new r_m :   0.2062 (alat units)  1.4499 (a.u.) for type    1
     new r_m :   0.2062 (alat units)  1.4499 (a.u.) for type    2

     Check: negative/imaginary core charge=   -0.000075    0.000000

     Calculation of q =    0.0000000   0.0000000   0.0000000

     bravais-lattice index     =            0
     lattice parameter (alat)  =       7.0298  a.u.
     unit-cell volume          =     347.3965 (a.u.)^3
     number of atoms/cell      =            5
     number of atomic types    =            2
     kinetic-energy cut-off    =      30.0000  Ry
     charge density cut-off    =     120.0000  Ry
     convergence threshold     =      1.0E-14
     beta                      =       0.7000
     number of iterations used =            4
     Exchange-correlation      =  SLA  PW   PBX  PBC ( 1  4  3  4 0 0)

     celldm(1)=    7.02978  celldm(2)=    0.00000  celldm(3)=    0.00000
     celldm(4)=    0.00000  celldm(5)=    0.00000  celldm(6)=    0.00000

     crystal axes: (cart. coord. in units of alat)
               a(1) = (  1.0000  0.0000  0.0000 )
               a(2) = (  0.0000  1.0000  0.0000 )
               a(3) = (  0.0000  0.0000  1.0000 )

     reciprocal axes: (cart. coord. in units 2 pi/alat)
               b(1) = (  1.0000  0.0000  0.0000 )
               b(2) = (  0.0000  1.0000  0.0000 )
               b(3) = (  0.0000  0.0000  1.0000 )

     Atoms inside the unit cell:

     Cartesian axes

     site n.  atom      mass           positions (alat units)
        1     Cu  63.5460   tau(    1) = (    0.00000    0.00000    0.00000  )
        2     Cu  63.5460   tau(    2) = (    0.50000    0.50000    0.00000  )
        3     Cu  63.5460   tau(    3) = (    0.00000    0.50000    0.50000  )
        4     Cu  63.5460   tau(    4) = (    0.50000    0.00000    0.50000  )
        5     N   14.0070   tau(    5) = (    0.00000    0.50000    1.00000  )

     Computing dynamical matrix for
                    q = (   0.0000000   0.0000000   0.0000000 )

     17 Sym.Ops. (with q -> -q+G )

     G cutoff =  150.2122  (    782 G-vectors)     FFT grid: ( 25, 25, 25)

     number of k points=    12  gaussian smearing, width (Ry)=  0.0200
                       cart. coord. in units 2pi/alat
        k(    1) = (   0.1250000   0.1250000   0.1250000), wk =   0.1250000
        k(    2) = (   0.1250000   0.1250000   0.3750000), wk =   0.2500000
        k(    3) = (   0.1250000   0.3750000   0.3750000), wk =   0.2500000
        k(    4) = (   0.3750000   0.3750000   0.3750000), wk =   0.1250000
        k(    5) = (   0.1250000   0.3750000   0.1250000), wk =   0.1250000
        k(    6) = (   0.3750000   0.1250000   0.3750000), wk =   0.1250000
        k(    7) = (   0.1250000   0.1250000   0.1250000), wk =   0.1250000
        k(    8) = (   0.1250000   0.1250000   0.3750000), wk =   0.2500000
        k(    9) = (   0.1250000   0.3750000   0.3750000), wk =   0.2500000
        k(   10) = (   0.3750000   0.3750000   0.3750000), wk =   0.1250000
        k(   11) = (   0.1250000   0.3750000   0.1250000), wk =   0.1250000
        k(   12) = (   0.3750000   0.1250000   0.3750000), wk =   0.1250000

     PseudoPot. # 1 for Cu read from file:
     ../../pseudo/Cu.pbe-dn-kjpaw_psl.1.0.0.UPF
     MD5 check sum: cfffd1f38ee05704b3e17f46f1730a6f
     Pseudo is Projector augmented-wave + core cor, Zval = 11.0
     Generated using "atomic" code by A. Dal Corso  v.6.3
     Shape of augmentation charge: PSQ
     Using radial grid of 1199 points,  6 beta functions with:
                l(1) =   0
                l(2) =   0
                l(3) =   1
                l(4) =   1
                l(5) =   2
                l(6) =   2
     Q(r) pseudized with 0 coefficients

     PseudoPot. # 2 for  N read from file:
     ../../pseudo/N.pbe-n-kjpaw_psl.1.0.0.UPF
     MD5 check sum: 14c48229446f9f2d411169a3abcbc3fa
     Pseudo is Projector augmented-wave + core cor, Zval =  5.0
     Generated using "atomic" code by A. Dal Corso  v.6.3
     Shape of augmentation charge: PSQ
     Using radial grid of 1085 points,  4 beta functions with:
                l(1) =   0
                l(2) =   0
                l(3) =   1
                l(4) =   1
     Q(r) pseudized with 0 coefficients

     Mode symmetry, D_4h(4/mmm) point group:

     Atomic displacements:
     There are  10 irreducible representations

     Representation     1      1 modes -A_2u X_4' M_4'  To be done

[...]

     Representation     5      1 modes -B_2u X_3' M_3'  To be done

     Representation     6      2 modes -E_u  X_5' M_5'  To be done

[...]

     Representation    10      2 modes -E_u  X_5' M_5'  To be done

     Alpha used in Ewald sum =   1.1000

     Representation #  1 mode #   1

     Self-consistent Calculation

     Pert. #  1: Fermi energy shift (Ry) =     0.0000E+00     0.0000E+00

      thresh= 1.000E-02 alpha_mix =  0.700 |ddv_scf|^2 =  5.645E-06

[...]

     End of self-consistent calculation

     Convergence has been achieved

[...]

     Representation #  5 mode #   5

[...]

     Representation #  6 modes #   6  7

[...]

     Representation # 10 modes #  14 15

     Self-consistent Calculation

[...]

     Pert. #  1: Fermi energy shift (Ry) =     0.0000E+00     0.0000E+00
     Pert. #  2: Fermi energy shift (Ry) =     0.0000E+00     0.0000E+00

      thresh= 3.142E-08 alpha_mix =  0.700 |ddv_scf|^2 =  1.248E-15

     End of self-consistent calculation

     Convergence has been achieved

     Number of q in the star =    1
     List of q in the star:
          1   0.000000000   0.000000000   0.000000000

     Diagonalizing the dynamical matrix

     q = (    0.000000000   0.000000000   0.000000000 )

     freq (    1) =      -0.973161 [THz] =     -32.461170 [cm-1]
     freq (    2) =       0.996124 [THz] =      33.227111 [cm-1]
     freq (    3) =       0.996124 [THz] =      33.227111 [cm-1]
     freq (    4) =       2.897898 [THz] =      96.663460 [cm-1]
     freq (    5) =       2.968922 [THz] =      99.032569 [cm-1]
     freq (    6) =       2.968922 [THz] =      99.032569 [cm-1]
     freq (    7) =       4.349598 [THz] =     145.086985 [cm-1]
     freq (    8) =       4.746902 [THz] =     158.339590 [cm-1]
     freq (    9) =       4.746902 [THz] =     158.339590 [cm-1]
     freq (   10) =       5.390616 [THz] =     179.811603 [cm-1]
     freq (   11) =       5.481060 [THz] =     182.828492 [cm-1]
     freq (   12) =       5.481060 [THz] =     182.828492 [cm-1]
     freq (   13) =      21.262246 [THz] =     709.232188 [cm-1]
     freq (   14) =      21.301395 [THz] =     710.538057 [cm-1]
     freq (   15) =      21.301395 [THz] =     710.538057 [cm-1]

     Mode symmetry, D_4h(4/mmm) point group:

     freq (  1 -  1) =        -32.5  [cm-1]   --> A_2u X_4' M_4'  I
     freq (  2 -  3) =         33.2  [cm-1]   --> E_u  X_5' M_5'  I
     freq (  4 -  4) =         96.7  [cm-1]   --> B_2u X_3' M_3'
     freq (  5 -  6) =         99.0  [cm-1]   --> E_u  X_5' M_5'  I
     freq (  7 -  7) =        145.1  [cm-1]   --> A_2u X_4' M_4'  I
     freq (  8 -  9) =        158.3  [cm-1]   --> E_u  X_5' M_5'  I
     freq ( 10 - 10) =        179.8  [cm-1]   --> A_2u X_4' M_4'  I
     freq ( 11 - 12) =        182.8  [cm-1]   --> E_u  X_5' M_5'  I
     freq ( 13 - 13) =        709.2  [cm-1]   --> A_2u X_4' M_4'  I
     freq ( 14 - 15) =        710.5  [cm-1]   --> E_u  X_5' M_5'  I

     INITIALIZATION:

     DYNAMICAL MATRIX:

      General routines

   This run was terminated on:  11:47:36  10Apr2020

   JOB DONE.